In Se 
 1.0000000000000000
    47.1912241391733147    0.0000000000000000    0.0000000000000000
     0.1523195795612292   47.1213012256138484    0.0000000000000000
     0.4476021685621894    0.1110247560605891   47.2816139833976834
 In  Se 
 1306 1959
Direct
  0.3724375852084677  0.2331899054752372  0.7868596013172340
  0.2425056361027208  0.6630717458952120  0.2273300585793357
  0.1590840724300135  0.1025539366624786  0.9238905502855506
  0.3874924792686686  0.5535527852559794  0.2756652579474845
  0.0784183187068099  0.8631523847519299  0.4185137947384230
  0.9901624209096532  0.6774833082287443  0.7083923353902974
  0.8799761545125347  0.3077024931866589  0.6499906428166681
  0.8896731602813368  0.9223222878839012  0.3071824744387640
  0.6950329910134082  0.5397293588251477  0.0710103291249039
  0.5369993761383967  0.1925406263322185  0.4453577694062148
  0.7307012106847312  0.2401474373964572  0.5506040398194897
  0.4611946582406544  0.7536961155928966  0.8438494895616020
  0.1129907037649819  0.2405078793803249  0.5595159555134253
  0.7818786900515363  0.6350640730318868  0.0544048021246940
  0.9029105476018447  0.1096808799411777  0.3589918467608363
  0.9119820608174436  0.8677718788819507  0.1704190661772506
  0.7433290166159209  0.7774775180513052  0.0303418558197966
  0.0168396978039403  0.2690763267262944  0.6719477305110888
  0.5216001358357418  0.0614504900811585  0.1360257891283044
  0.6750310303744216  0.3418667574993701  0.0290470620776357
  0.8115014933567339  0.3290763105402598  0.5988560367022411
  0.5330087754375052  0.5004094750995703  0.2058950542376942
  0.4663793785985391  0.4689469195689570  0.4809980082225139
  0.6601484779122933  0.5192341759252881  0.7278863644037101
  0.2562896771109356  0.9796863357689710  0.6231209098068949
  0.5416436012264101  1.0025013938046803  0.4325744862494198
  0.5424501953722062  0.3409875121746841  0.1140900445320149
  0.4302151200759590  0.8387663870327063  0.6459908170310463
  0.9915328289177965  0.3292855449059776  0.5071507240800150
  0.8326408486482910  0.1277395771286509  0.9122538494205373
  0.6940414070371895  0.0576180411926877  0.3997792445883395
  0.3886911694342648  0.9847697963471798  0.4732139208254908
  0.0819869540192257  0.0826626207677180  0.5369394736906768
  0.9849337146473243  0.5425253379628459  0.1918689105318017
  0.8454604149401004  0.9725959513647460  0.9459520138347102
  0.6191930084987459  0.5555373572974975  0.6044009891391431
  0.3988576100245431  0.7807518149974074  0.9640303122139303
  0.3828115591902642  0.4191001441078702  0.0419714917971810
  0.6571108720730041  0.2980218069660814  0.2797777583722678
  0.6680331284407974  0.8311362459596493  0.8391082442055497
  0.5519801952645808  0.6780938846406479  0.5535235452630606
  0.8025652337086456  0.1137846793744720  0.7049053570336175
  0.2667345672685725  0.4868405152918904  0.7254666425055076
  0.6156060244977924  0.5951069428470013  0.9939141471451907
  0.3221574648427902  0.1867130992707539  0.4169762451529898
  0.2049389010516139  0.7107216132451448  0.9920874397296536
  0.3292559169724246  0.3540679577386993  0.0431839992935725
  0.6961300946327014  0.2634406762052253  0.7622636221039220
  0.2755653520193231  0.3491785090136987  0.2850288569674143
  0.0158346610280229  0.8405204470679698  0.5626571053582488
  0.1523488663501290  0.1426868263143382  0.1240783612098941
  0.1960824913714998  0.0831506877848487  0.1218302154011283
  0.3121232843730942  0.5802302484420391  0.0473125361000342
  0.2070721904770491  0.4304141026623409  0.7236842201756534
  0.8729238021730890  0.5707254096399361  0.6795288800272489
  0.1839294895498924  0.3916507851109568  0.0699341926643326
  0.4039155760190372  0.2947491200855969  0.1430706873213568
  0.7779497154801942  0.4439165699674725  0.1047980788237932
  0.1144507119563666  0.9517014773951123  0.8034488129822293
  0.9161213467062056  0.9093652850415910  0.4474074636579711
  0.5522522217610322  0.6550180122940878  0.8584305601397220
  0.3213198001773625  0.8156461662327884  0.6834728826772516
  0.7341723282795710  0.2891665734941266  0.6251086412109756
  0.3017507028747201  0.3332215183986280  0.3538360570375673
  0.4402527860680639  0.6326343762877964  0.4845596313675141
  0.2057889321829771  0.5124232802033445  0.9127226465024185
  0.6637683556267496  0.7874260200656165  0.9800003276720602
  0.4761409022641797  0.9907072160909727  0.1112423263922791
  0.9255355732446184  0.2061136307103401  0.2763936573109584
  0.5271748207037772  0.6157823936326523  0.4440354074031030
  0.5760461876430975  0.7411893241698601  0.5097934182182502
  0.5810344901960270  0.7398891930678765  0.8790284377330427
  0.7810231202977768  0.9959331779380241  0.2817701237989654
  0.4215216098631187  0.7490098525706178  0.7798563373933493
  0.2621944371182909  0.7494677451698170  0.5529602134349129
  0.7610894086155796  0.2437058985201998  0.3051220798805976
  0.2883834154097666  0.8958434677999733  0.5497906092193865
  0.3094847063755798  0.4975017785397035  0.8258535781946419
  0.7279012426094524  0.8390840303719390  0.7341448607328636
  0.6879640907459342  0.3708276579081551  0.2436349644976703
  0.6377801055420719  0.9826650923609759  0.9146733138909097
  0.6410349660368558  0.7196801612399046  0.7220752565309559
  0.5933685921296713  0.4873298927996629  0.6500829324279117
  0.0334376460948105  0.2347251770369392  0.4584788867805749
  0.4940720802695318  0.5929938183084897  0.6487868834929404
  0.1154372309068557  0.0971265287112288  0.6095495496062269
  0.3670813518462991  0.0525226041240012  0.4880046519089715
  0.5833727861261798  0.7165713924030219  0.2236280970201643
  0.2221789641062194  0.1291434769123797  0.5572535102975396
  0.9772441305042540  0.2078230491137519  0.7124244353232089
  0.1904191497832607  0.7571849476361505  0.4090897719460008
  0.9557656662285152  0.9550307911628224  0.0776381492327322
  0.8197795563618958  0.7151049947664797  0.7075696534210654
  0.1848222364059243  0.3268394928900327  0.9929183011264300
  0.7117854617747178  0.9746207305368901  0.1816044640249823
  0.5957533679972291  0.0646153126120997  0.1368093382417116
  0.6236739309082345  0.5240770562588922  0.0119139555595011
  0.6112668368274087  0.7080439696203381  0.1510034154757916
  0.8436638547904105  0.5697529259277155  0.1693025214359047
  0.3346548897275770  0.7654233408432408  0.7529983719760583
  0.0665421879060664  0.8748361212798981  0.0141445626387655
  0.5465737250720798  0.8172984872302230  0.2184908432047332
  0.5249558340375112  0.8558419476048134  0.9306349945571417
  0.5777638526504804  0.4459628665059756  0.8931652036503236
  0.4221849585633994  0.4331032225231436  0.1133902065495846
  0.2309433901157060  0.5933882358431812  0.4217807875868450
  0.9296954436732608  0.2085553221026244  0.0872738663485815
  0.0464165457213748  0.6722530466845915  0.1834826759626326
  0.9886048650478263  0.8984357757772675  0.1089078205100636
  0.5911350737495327  0.4104271547844664  0.4690007264042493
  0.4905530545903428  0.7772887909446498  0.5623583366897861
  0.6849402190934204  0.2614769213523372  0.3349965523598082
  0.5743685303940742  0.2922829174547791  0.4049702181980698
  0.3906518638758019  0.0739608690834860  0.0324707641932837
  0.3808093287197251  0.7893203865086734  0.8325419358380739
  0.0875142805637490  0.3169663862385906  0.1427340673824301
  0.9772876451307537  0.4890115685084594  0.6699944122010462
  0.3695294916198048  0.9163070718435785  0.8986522971655961
  0.5555916001959930  0.9709577657837298  0.5329036123559266
  0.5642833568217043  0.1655864668009481  0.2144226453458453
  0.8426457005852768  0.9746319708166253  0.5718878990807473
  0.1338685423922064  0.3885389440866829  0.1453169543336935
  0.8212111019081163  0.8359222000537428  0.6417780506557962
  0.3505835301827867  0.6363747072976638  0.4805178676792851
  0.8809902727206057  0.5364864339573628  0.6047199795571854
  0.5776450737873307  0.3388696059167757  0.4928048289616719
  0.3001328109683911  0.3241589632700457  0.1079572672105822
  0.6363960596345828  0.3145911344346519  0.3640047226740799
  0.5326848780988497  0.0544334891444015  0.5099634561183827
  0.2050406739010720  0.1662019585640941  0.4936291890075823
  0.2569495528627291  0.2296527079274061  0.1575528491516953
  0.2853104623895384  0.0925743234269479  0.1355975097943445
  0.5001743166848316  0.2106035139099596  0.2227841850721350
  0.1668509362856672  0.4139122559484763  0.2844080188390630
  0.5801676423872163  0.3621506258867200  0.3528032512824817
  0.5477906904158043  0.4795112219507648  0.4407780288453381
  0.6987337156937961  0.9813673303956489  0.3016732855617310
  0.5910870536484021  0.7584047155932861  0.9580640491966279
  0.7253421129015273  0.6049553805390014  0.6995978270939250
  0.9387936550612082  0.9025601129338399  0.5968110792102823
  0.5045844367357578  0.4204830355893669  0.2338552877428578
  0.2001973331093793  0.2792472197552770  0.1810840657777613
  0.2709051333293382  0.5123966945352514  0.9978662681896867
  0.7973411755447355  0.6444860920533581  0.6096191818550538
  0.2505859559580182  0.7696105955583337  0.0144686393611134
  0.5996882349612470  0.9534920674697381  0.2901911234392167
  0.4638945116417450  0.4031989503341805  0.4085649915781965
  0.4943583295382685  0.3348767113250478  0.2716669013739522
  0.4553076772329431  0.0864389530775909  0.5259806197428680
  0.5265042480928064  0.8106988962227311  0.8552864860827886
  0.5019615178683767  0.2177423368875991  0.3503209509442480
  0.7574072095833115  0.3188504962296688  0.2684088337451142
  0.0636980964208667  0.7185408185515693  0.6211846243298819
  0.5910099125194525  0.3091245645926385  0.0658880291332312
  0.6936303542540516  0.2768802767461541  0.4176718577865961
  0.8970264649063152  0.1170553141563296  0.1025188546086895
  0.1470414870729928  1.0040304296443636  0.8748551486873366
  0.9260910315523411  0.7311338325888119  0.6166195365635495
  0.0697638419411150  0.2293367456215083  0.1804624466412063
  0.2269827296726265  0.3994832759430940  0.5137989403815417
  0.0604011419430869  0.3675451086676166  0.8963994990696295
  0.8619718820249377  0.7950152618453926  0.7299058862860193
  0.9111556340402246  0.4705255910767592  0.2166939568008441
  0.4017304621948161  0.7843086066563359  0.6933083131298997
  0.4006571514110246  0.7675099205060398  0.5388544858281398
  0.6283289278567186  0.1711940775008987  0.4727488033831163
  0.7903293717866993  0.2502431249018716  0.0906535601155792
  0.8704107936829046  0.6615885207396486  0.7067280524852273
  0.3957185825473327  0.4957112340056615  0.8816378256158446
  0.9410847901126435  0.0326353090937000  0.1141119831533996
  0.4109741917844219  0.5960065012805156  0.3488694425825287
  0.5055533390293737  0.5242385180205895  0.2900628394293470
  0.2118597236262009  0.5220794185084769  0.3780905361751946
  0.7648278402059000  0.3739340099396092  0.5546032920489480
  0.6259914189383615  0.6536527638098034  0.1978673058723900
  0.6862912317984391  0.4709747392933289  0.0495103438439734
  0.9865805134710924  0.7876348319650209  0.2683874134508344
  0.8207213923324271  0.4502880490250189  0.2433621142375213
  0.0537492231286194  0.1401010947026559  0.4847223536068120
  0.6033086906764055  0.1393042088124903  0.0450454968903390
  0.0346380307180305  0.6031133513040131  0.2392647635675036
  0.1634915596817927  0.8715527431840114  0.5581805894925528
  0.3410199690717058  0.6469498013656330  0.3607264619562335
  0.3961599894465880  0.7247866143171054  0.0371182473041621
  0.0899712315627324  0.1811012858601698  0.5997675744326647
  0.4367340028590988  0.3105610303994980  0.4491507814347812
  0.3507445443575790  0.2027416513628887  0.5188473809542032
  0.7598039679746419  0.4120189133053838  0.6848577594827319
  0.9661195121733500  0.8517365911436814  0.4509844158528520
  0.5547268323231972  0.9164330268410914  0.6024074561388052
  0.2245495912173990  0.4459448123586088  0.5889433894632982
  0.6376551858889348  0.3754193093791228  0.4091147633452128
  0.6819546008263203  0.3161679833849378  0.6880999189262348
  0.7160220738091391  0.1681520348964471  0.8812886193143297
  0.3670972694879844  0.6458854675134835  0.1482861743585913
  0.0469994412649134  0.7394818806703709  0.2284100719321134
  0.5889992437516113  0.0806209340049768  0.3456096371669141
  0.2102444613307752  0.0973453896698639  0.4687226964213005
  0.9451136130767535  0.8563584361358432  0.3075724402772141
  0.9790051366385127  0.7965749268489235  0.0368643866556709
  0.7833574712685215  0.7890302029850390  0.1586106027001616
  0.3760237718978842  0.4510834826285243  0.9487538355095665
  0.1490621447539850  0.6495473295538987  0.5536968931117699
  0.2476777201247492  0.7615551468348797  0.4830296256226289
  0.0347410753227237  0.2434002664305937  0.3776703923903352
  0.0799493782626663  0.5059058329688032  0.5515141125426938
  0.3840280174792899  0.5649191868571546  0.6997498220824033
  0.1133593862748557  0.8021202184050720  0.1404653330024499
  0.7984706551107886  0.2494515272292806  0.9889118653022533
  0.6120172926111911  0.8884698317555799  0.7345497463602699
  0.0721035300161044  0.7246131986610030  0.3960667374317798
  0.6742142592913281  0.2079985907100554  0.9379289709413382
  0.6770542413845759  0.9120661344319121  0.4135335512349299
  0.1737583326217963  0.5750079974928486  0.6854344204639851
  0.8363158128750552  0.5911741809456532  0.0533197827880240
  0.6285451578096799  0.4037218042634169  0.6168616058875043
  0.1439758760122441  0.8265406096640214  0.4057328394498386
  0.2283364706925292  0.9269587537256295  0.6764800383005733
  0.2286497198371281  0.8514143871522230  1.0052857330230516
  0.2170230549861638  0.9684081717714044  0.1149868311044219
  0.5165508961435744  0.5104480954760099  0.6203919409293891
  0.9374662860979474  0.0461555850741698  0.3487991762915989
  0.8997671135836485  0.8403725442850279  0.9471021007661883
  0.4697594020840992  0.4053160006748313  0.0692749152763040
  0.3923071176420209  0.0694935051371458  0.5634495293114505
  0.8503687797748880  0.8996212320369863  0.6144316860192285
  0.4345900029793848  0.1671623998880424  0.5032067647505815
  0.6601899782604381  0.5849751138274222  0.2110621019323050
  0.5983145746341432  0.7830085346350433  0.4302343744397244
  0.6746122504979536  0.8290904325265427  0.5934976966110952
  0.5713368543702421  0.5733117312302997  0.2237802061207519
  0.1401251152369731  0.0215726924313083  0.1145518880636221
  0.9840249118012365  0.1091042448696715  0.4916169213205397
  0.2497274808575154  0.3106656974891130  0.5098666756459694
  0.0575359632810421  0.4357565226570914  0.1173323184754758
  0.6530533261528132  0.4825752029765021  0.8674115708707270
  0.8685104470756284  0.7698025961207828  0.6010727632479670
  0.7823194818023436  0.7670072699258483  0.7420063906948088
  0.3440463505266991  0.5650009665478661  0.6184743245116007
  0.4435551673913765  0.6805236604146491  0.3400378281554786
  0.7419692183981835  0.3739739179852772  0.0684673177119050
  0.9799006735920358  0.6743991269599576  0.6208328787142848
  0.8931040660832824  0.3322502716962243  0.2963648024692371
  0.9543320327317432  0.0395959783659790  0.8489490961117790
  0.8203725512242290  0.2557544692876912  0.3766092368708876
  0.2606865058975910  0.6221651483972641  0.7735191247115278
  0.5971044117421276  0.5416109074510373  0.8704476658301521
  0.2031511143065201  0.0722250405104941  0.6210644899953790
  0.7121899905035878  0.6113637094457307  0.0231434870382767
  0.3531461190991035  0.9293743892694420  0.0399420631269764
  0.4467518439090154  0.0940959844424870  0.1621033171231133
  0.1610412069915582  0.8014852126685235  0.7664943863591764
  0.7915286803027486  0.2284423197405759  0.4671636495506263
  0.2883426243509858  0.9366580641149783  0.8926930907703969
  0.0840412040798413  0.3084933852683463  0.6690460089578014
  0.8728193512636877  0.2725200050689012  0.1264132857508282
  0.4529854528919330  0.3531174249789796  0.1267096703104671
  0.4490595803129572  0.5570042009796637  0.8988965112313285
  0.7111290607498181  0.6483690629723775  0.1586630791961506
  0.0601297901642967  0.9138741499326871  0.4740953357631526
  0.8131362953317265  0.8308499488086852  0.9915650560311644
  0.4340505757035357  0.9119666459746616  0.4926857149212684
  0.5675762832424719  0.6125809620364662  0.6002927792986406
  0.5400889554234195  0.4927492348911292  0.8263524580140301
  0.6541707664368551  0.8446109582650562  0.2124040312545122
  0.9305412500584194  0.3957920182083677  0.1589448651566084
  0.8812183251521336  0.9652537663441342  0.7809167901577100
  0.2489926554418862  0.7136366711967044  0.4151503216540648
  0.5648584027314800  0.0690864268143585  0.0600109441801367
  0.0730287813752196  0.1390822328894561  0.9058479394089742
  0.1409029337437817  0.8626915074931775  0.8521833322683303
  0.8075232214374273  0.3311980744386894  0.1108273271476785
  0.1735239322426683  0.5272373556474135  0.1268852712659272
  0.7072619752038062  0.4640734698537776  0.7312240806577895
  0.0390797243161498  0.8507096654253424  0.1666582483080323
  0.9837528624317821  0.4986386256829510  0.5831110348765621
  0.2133591077621592  0.4597093533499619  0.1066786659777012
  0.0360783348251031  0.4281240596937674  0.7042633393427953
  0.7433418281328407  0.0302909333166783  0.3408306070628761
  0.6038874826501025  0.3831228158825264  0.2620509052828314
  0.8206449200990675  0.9840706695172499  0.4243715982349737
  0.7130466772236794  0.8986669410060478  0.5682134825943553
  0.8585825418146804  0.2607746821644825  0.5290600455427812
  0.7790387788602531  0.7785215832363289  0.6188613172322249
  0.5706226237249014  0.2110646062167319  0.2879633196877434
  0.7235213381798671  0.0404143372926541  0.5002154038092325
  0.6972136001705606  0.4251156870717629  0.5593568214922717
  0.1635673203314712  0.3861490910201388  0.5694160873249569
  0.9258300421325214  0.4840743913240903  0.1102213620824765
  0.2489624954383068  0.4758742228305561  0.3259100942595394
  0.2486295246348074  0.4334600700135216  0.7881360466688346
  0.9525664536292217  0.1080438429810127  0.8214110473526991
  0.4507812152345592  0.6307521994705694  0.1599097227198817
  0.3432120872154869  0.2934596053385094  0.2207825881713968
  0.5138057377037817  0.4693975110347909  0.5440752363597033
  0.4209597686845654  0.2241035945829080  0.2149843158636388
  0.3938356754380439  0.1561064414500537  0.4142612274248352
  0.1068752255324811  0.4605296341376984  0.2873661573819263
  1.0006273449027616  0.8426177276070664  0.7574804375735833
  0.1188651867062075  0.3210107018219512  0.7648788184948486
  0.3216430150596835  0.6761197171220088  0.9025240441956373
  0.5060673281893855  0.8633628493186798  0.4762016224621685
  0.1578137917299584  0.2418756138656373  0.4180779275521333
  0.3416089222585456  0.0662544865433343  0.9661363768959625
  0.0585860713261900  0.2610547604020690  0.7340648022886573
  0.2915299787299323  0.7342366771670230  0.8710923434507506
  0.3682524729708335  0.2816722025344012  0.3507553231315107
  0.5159450172849384  0.9355718219715811  0.9255022726345663
  0.3509581361368864  0.1381686580207530  0.0906857248418821
  0.1298510998345516  0.7306135367296123  0.0382865364303698
  0.0983464512723750  0.7211843068414339  0.5385059581573585
  0.3336201167468812  0.4331856754652779  0.4381667639028040
  0.1148949560904950  0.7803159495048295  0.5801135895879574
  0.7432445217976000  0.9986823902362593  0.7512733289071133
  0.6007236428639922  0.4970659193018947  0.4979319469540452
  0.3264216095818097  0.8091664962291414  0.5566075194643814
  0.2780005993744613  0.4467168677213341  0.5293964144149068
  0.6634841800436816  0.9064712334283132  0.4960540901900863
  0.6623160017939239  0.2886808374859932  0.8251218597220170
  0.4214606944915893  0.6525927117658760  0.0737269479819104
  0.1161854382079045  0.8564299134092080  0.7850241318814143
  0.8100792167722882  0.2868265630974297  0.7532461927219445
  0.0880370763038002  0.5756460339639831  0.6707608546776914
  0.9566493167063205  0.3194459618647675  0.6901344901709475
  0.6282528687841390  0.3607870676977782  0.5423827747776782
  0.5651633767754498  0.8209412531448999  0.7126692614859566
  0.8727517682880307  0.9793680233850154  0.4874307365497916
  0.8970825234117163  0.0695438374083841  0.2187612893253536
  0.9345619814198344  0.2109353382070456  0.5811097251177681
  0.6857874388312277  0.9294791707985587  0.9279536276580880
  0.3016961115060480  0.5796906489633090  0.8596484346015886
  0.0357096760190011  0.9489964925946199  0.7909075250734505
  0.5672225592331386  0.2836656318137527  0.2505063089981751
  0.5762529604162708  0.2111446784285047  0.3647929372929068
  0.2440577698144753  0.5332509615672295  0.6638792761270921
  0.5735716220306428  0.8188928520825109  0.3607128960846814
  0.3962005928055193  0.3525370322825798  0.4019949553472969
  0.7680798308639619  0.7067683615844604  0.0976807758434776
  0.2590623757489144  0.3825886655114932  0.0873270697263410
  0.7426050173395371  0.9522772079779446  0.6824721837352967
  0.4836599355025685  0.2865779236447022  0.2094975015012169
  0.5405263377790962  0.6316684508799874  0.7791261219218482
  0.9432586492095359  0.1960199882113159  0.8234727969901701
  0.0464358247186141  0.6403870664487957  0.6550498275531955
  0.9840596202274935  0.3459455645318281  0.1807652225979907
  0.7766203279790663  0.4589443314926737  0.1815715592340260
  0.9485487165972700  0.2577741746627860  0.4944589338274937
  0.2721990819745909  0.6884982803809651  0.6270270751542036
  0.7088611652704051  0.4601407234504142  0.6304775361765175
  0.6118256319588986  0.9053933315370636  0.3576909035758148
  0.7921811157451731  0.0171642831645992  0.6164775240750594
  0.8030521707492317  0.0346418978634011  0.8866545886341336
  0.9238971927395002  0.2399102706555069  0.1697206915880218
  0.8104143091571245  0.4151786593826497  0.6284056579102921
  0.8469882305990211  0.2331306758154283  0.6127187165570989
  0.6460385542619190  0.2338682706948890  0.1149668731658979
  0.2203498491609559  0.8893123284399732  0.8734482859955696
  0.9555939451389255  0.2571676183996142  0.4112323889929248
  0.3707767367155373  0.6422421072973010  0.6730064073162939
  0.6231708968451327  0.0521706031018394  0.4105950600625249
  0.9303861847384457  0.9561996372627011  0.1448189878008989
  0.9542796820095450  0.9168298675003211  0.3638576582418315
  0.4017363137255536  0.6351945966186492  0.9035582570791350
  0.8296727563685934  0.1756079903073567  0.6629549758828919
  0.4298411524802340  0.5253526814077680  0.3555171951111175
  0.5885692981070941  0.7762969220409591  0.2797996067887112
  0.8339740244879427  0.1388431460563990  0.4785468912097114
  1.0072394605397790  0.0920058964032413  0.8923172455356141
  0.2773894009112982  0.4996961852827728  0.2493422664142244
  0.9445234567847531  0.2777866820777163  0.2805274814142789
  0.6437508037380331  0.8202361992077767  0.7641461780846113
  0.5687717586606876  0.4932767270294607  0.9640871047003059
  0.4746448869557996  0.9278542417857292  0.0404200168974600
  0.9721143077331447  0.0492988830761209  0.6339855033356386
  0.9022369188961759  0.3794577247307917  0.6789660170460979
  0.2783384845901734  0.9294336064413611  0.0239369290190705
  0.0791748355834382  0.8720664503441230  0.5447214909749346
  0.4121205124746188  0.2131320945130109  0.0975401037025016
  0.3776575944758958  0.8225950304142802  0.9015243759156785
  0.6634472316471177  0.9780812710884997  0.3648055811476922
  0.5095337883148896  0.1519690435247150  0.1618523129935420
  0.0603285718423174  0.8932322941387240  0.7445093180370649
  0.4695366208184982  0.6586311802495188  0.4173442957772017
  0.5271551198488679  0.6759937545945250  0.1547398169954516
  0.0335127796053864  0.8584047093177892  0.4880151460407713
  0.8695884036068140  0.4047994086559348  0.2054274094222236
  0.8698300278528754  0.8989436460600189  0.1029502305796058
  0.0655160739077677  0.8286152154976240  0.6192024263309457
  0.7079374376867672  0.9620136568784575  0.5230189018524365
  0.9743330350267678  0.9040029137929319  0.5108408698191994
  0.0290999013571898  0.2675943024606349  0.5359089575447545
  0.6505963771889685  0.0456805303943701  0.1994476792897017
  0.8082656810233184  0.1441288817814102  0.1966245043158815
  0.2401840559298809  0.4374915905083536  0.9580218136498032
  0.2016635662519625  0.3446552969923543  0.2378533439336462
  0.7104856817597770  0.3766585608149765  0.6348576052327821
  0.9095724068055030  0.9856194335743755  0.7105483885364171
  0.7521814443916240  0.9114653287779990  0.7351818238041961
  0.1233262862063716  0.3880500079907410  0.9424169039260224
  0.3587376737698494  0.5638900258158942  0.4827841701278701
  0.6248542149269051  0.3237586940918038  0.2153122466720797
  0.4195181928168843  1.0021563948534062  0.0529546357657691
  0.1110777349202936  0.2686182406565114  0.4822694532179629
  0.5992698324970798  0.9402110572886840  0.4305752675985706
  0.8113438579149553  0.8779144120791057  0.0495731389551049
  0.9021839209729605  0.0290274285720043  0.6271695454002749
  0.0085426771583024  0.8627880251922451  0.6462845603840764
  0.9074949756165460  0.7847272781012230  0.0777854192766064
  0.1006261398828094  0.4215504296401566  0.5162352517715250
  0.5412009164983395  0.7525036437571392  0.0153985839087521
  0.0261279347381859  0.8325017355932367  0.0966148190529614
  0.1376278609317089  0.1515727764727841  0.5493186129878076
  0.6218868056390187  0.3426821681986524  0.9512986012188862
  0.4725618156058590  0.5565111399594802  0.2241046856877890
  0.5899791779285529  0.8022730237072472  0.6152571090725838
  0.9225315317301772  0.2375015059193133  0.6531490483106923
  0.6423950908015806  0.3595956708271322  0.8636983320976974
  0.1963721033739751  0.7309037253360249  0.6122401100650071
  0.5378308786861161  0.6891577703727700  0.4116861836152303
  0.2150423651127781  0.4827100663345654  0.1926741726124349
  0.8296158995040823  0.0706415220261408  0.3970072438631794
  0.8497913236390979  0.0182891340839976  0.8241312627217890
  0.0261865250754831  0.2882192845512613  0.8743086085654235
  0.9296843346033463  0.0879879607768028  0.9128561173515166
  0.1069861870956904  0.8065735085964123  0.0409658827020126
  0.4305780008894072  0.7383224819091412  0.6165800152631292
  0.5745935387106987  0.9428443046642421  0.0240432516914246
  0.2959471818514602  0.5974228142968603  0.7096088737978927
  0.7433228495061808  0.2918505171546227  0.8114393775669128
  0.3041645408497385  0.5987196137996404  0.5398112515344916
  0.9877504581430473  0.1670359546138515  0.8778323774950069
  0.1863674424320392  0.9113725324973360  0.6123592341394614
  0.2110634533559699  0.6498933446608159  0.5913589162548171
  0.2483510163484901  0.4733322876761751  0.8614110399430540
  0.2803175928593161  0.8025251739026805  0.8124308250735777
  0.4826612850810429  0.0408792084066327  0.4570680827473992
  0.5252239807944765  0.5203831999119231  0.9054576111828109
  0.7711010233529154  0.1925031620342215  0.2404231555195959
  0.3237961208381774  0.6520974160900563  0.0339699778118805
  0.6587188538714004  0.9963651212288809  0.4652718881261321
  0.8836704892613181  0.4515992407917411  0.6270243896705298
  0.4086369355151270  0.9000022285216266  0.5757164520446441
  0.0154259701129495  0.9256625935636976  0.5833087624800150
  0.7360805915058218  0.8505614405542009  0.0454951721470695
  0.8031460625789911  0.2628978908137782  0.6606105651975835
  0.5958126174735965  0.8386212857331899  0.1525471904140455
  0.4951095251496297  0.5582368388547262  0.3506673000780439
  0.7252271525324175  0.2310281302916653  0.9754320275918231
  0.2053779584527144  0.6037981923792698  0.5283968647513950
  0.1224384860339372  0.5831020271392015  0.1676637119354992
  0.1476182078258911  0.8799145193620630  0.6899520727085141
  0.9019676362213647  0.1427186750112504  0.8674480567740381
  0.5123327469168480  0.6671003497161890  0.2881770743418426
  0.9095036505471393  0.3122780244977292  0.1987769999702803
  0.1033680710969434  0.2221610793726442  0.1105420864449313
  0.1674876439911908  0.7877846872036581  0.6659726541849622
  0.1599834468691185  0.0897512250301430  0.5335758919883280
  0.2034494746348254  0.3935958900003075  0.4430048649544361
  0.6489138033703371  0.5892443812331936  0.6705420136820929
  0.1376079848963020  0.4647000274567369  0.5939223197401137
  0.6687972393116215  0.1740800382608202  0.0826830202435387
  0.8591154813172012  0.0469686755818489  0.4743589964965849
  0.8385730803695770  0.1022508548530963  0.8264743834229178
  0.8346361120089256  0.9050243669653468  0.6984591782583361
  0.2525203927454129  0.7054195173220459  0.0616581623253090
  0.3636045904301487  0.6948986102373226  0.9612039105614705
  0.6869595062393489  0.8826811899686575  0.6528225544162433
  0.9060994848465010  1.0051409627351349  0.9062516575071772
  0.1032739255022386  0.4336112936042223  0.2198942537204893
  0.1111806000889592  0.4389819612838095  0.7366755614763292
  0.8451961978778764  0.0888858262526857  0.1605174088221669
  0.5127959337545090  0.7251597592321657  0.8892540869544904
  0.5547151024454701  0.3561198913828414  0.1926448226361709
  0.7875959824256148  0.5255900337160864  0.1504529408468754
  0.6516843454263777  0.9952474453856490  0.2553568091772098
  0.1942305354450770  0.2527897540456179  0.4766638069088437
  0.8290135514537968  0.0586241081825910  0.2279648325559349
  0.5294510985610514  0.5498482067138009  0.9766687964145860
  0.2818339655531248  0.4083904068182541  0.3929052326364395
  0.4708871098448235  0.7914375450906999  0.9189107233279675
  0.3716685991417781  0.3578935594331191  0.1438768618290659
  0.8206178861794599  0.1337824041739970  0.3383154189038718
  0.2903682634706937  0.5208571413495491  0.9210024459593685
  0.7685272884984762  0.6027106224196668  0.1178305795748892
  0.9127311997926604  0.9318365471304828  0.2245561609056497
  0.2698328324997150  0.5903862025387679  0.2825508966699768
  0.2911903289035251  0.5396793902455002  0.3428174560768416
  0.8298053465372572  0.0111150779033132  0.7071514577412082
  0.9012845627402536  0.2573836438875028  0.3478970820445912
  0.5035698183513221  0.0327714041313118  0.0531011974783009
  0.1603368185375507  0.5404798752208687  0.2194927484422260
  0.6953082496781746  0.1742967524594621  0.4342082849103524
  0.4900323414684208  0.4038315210304927  1.0034000727973191
  0.7570519821807178  0.0527334306047176  0.9399581741636076
  0.7599042943082545  0.9567811189998786  0.5902111062153508
  0.0985806870880302  0.9449854869394819  0.7187544448745752
  0.2596220760853681  0.4244348478747746  0.1618350647814681
  0.1214680553746663  0.2682269067473197  0.9393833754373616
  0.9112652138250512  0.1127103244629907  0.4715645389922927
  0.2959869230317317  0.3631060107517226  0.2020891215095359
  0.5078196573862404  0.6185431910739733  0.5337451876334071
  0.2947136119326867  0.2736993789258088  0.4199953815622355
  0.3940533235731157  0.6023191381505635  0.7643248468564643
  0.7654026776048178  0.9044169840952154  0.9823601021388989
  1.0010147092548407  0.2710353890787782  0.1650102322200987
  0.2618218226228013  0.5950862439891057  0.6119242960398040
  0.5852890904049934  0.8628833427531950  0.0816333553414266
  0.7321075496800838  0.2952262689991921  0.1174804298211986
  0.9190861081793298  0.1635343723320366  0.6837222386185603
  0.5214525301811390  0.5861070599566252  0.1671169470399168
  0.4161354554525640  0.6251680457995492  0.6215521187995561
  0.6730131914315493  0.4433537159003836  0.2004703970836801
  0.9427575328429582  0.6270356132018037  0.6779180648761762
  0.4569993195891953  0.6632867159941329  0.7655907976655468
  0.2205867168202405  0.7301836903369187  0.6782047166477386
  0.2164278472948825  0.4634459183593114  0.4912037461476675
  0.2197174485740979  0.5581626184996364  0.7468761140057802
  0.7267218578777794  0.2108892893257114  0.1006711838622580
  0.5251715812301085  0.8725510468898126  0.0273680650788115
  0.1588050875017534  0.5936653346444338  0.6048598875805150
  0.5595590599010722  0.9930228667976387  0.1130732675297334
  0.3394206539544813  0.6762198882387135  0.7334476516475151
  0.6883360344741788  0.7280961006822187  0.1312274855404363
  0.8168249995421841  0.1803802058783199  0.7800678924578844
  0.3492048403644549  0.7506385713630831  0.9122895114330309
  0.0493170281507762  0.3107520948197707  0.2136061455263583
  0.4650433204602006  0.7057542720137433  0.1451031554475489
  0.9976874816048272  0.4581639270774950  0.1660632093824668
  0.4409275740202823  0.8448106267007044  0.5340783978862451
  0.4126957407669885  0.9696136023501989  0.5563244611859685
  0.2354849248190293  0.2863617350952864  0.1004562674802252
  0.9706667576607606  0.1339521656369532  0.7311353252114208
  0.0702636954898674  0.8174631763048030  0.2674417248492712
  0.8401896723986905  0.0680222635992107  0.7521984314322788
  0.7750940318939109  0.1867995634336444  0.9424879293832205
  0.8459388868406800  0.9288691841704930  0.1639441498524605
  0.1642593594406601  0.3986133516251648  0.9964167159164591
  0.7024393920361934  0.2316639828672170  0.4770696290023586
  0.6463791445414031  0.9948339198398412  0.1221718833727462
  0.4297857259634270  0.6059972626878031  0.8325299664619321
  0.7215225719081810  0.4804993437748314  0.1298460085147722
  0.1026205721394130  0.7115527280192527  0.1017725024301711
  0.2166771161349225  0.6898605409195508  0.1370504720700831
  0.6768506140711158  0.9163265525416554  0.8592071520030146
  0.8983918410457822  0.0606474627616085  0.2890477546524752
  0.7369366787883074  0.1273184013282889  0.0508045803992323
  0.5320195771716100  0.4422192493629620  0.3814922910584518
  0.1903713795623185  0.6138919949217144  0.2792407441638150
  0.4945514047421863  0.4861414638642251  0.9637781420106378
  0.8491771170358307  0.9981776253186613  0.3428065012778732
  0.2770970579845871  0.6769509930538666  0.4934554384631025
  0.1530539507857117  0.7359144875911031  0.1533225759765062
  0.0396126669679771  0.5871554129186398  0.1292737762327826
  0.2347507355089723  0.7698617897839701  0.9353423088169084
  0.5612736719883915  0.5996267763488112  0.9188479967471901
  0.7021775531729402  0.9260973200781553  0.1136449437157791
  0.6250559709712091  0.1214138645178810  0.2117420747607819
  0.4427761473420423  0.2690240066120633  0.3600138754116591
  0.5925220695683048  0.5747127109929319  0.7681920922371005
  0.7727598855922425  0.8584292492345411  0.1120486870569866
  0.3420639693905792  0.7395532255018153  0.5835514898715812
  0.5623113278974727  0.2553254943086982  0.1073892352385659
  0.8828293134224686  0.9638202719028790  0.6465759116001883
  0.9004857657720288  0.0768561913899707  0.6990092086656493
  0.6491132782393620  0.0875482396905995  0.0689962140246688
  0.8534785223062317  0.3557638912458937  0.1549143825918750
  0.6248812071427104  0.5059720349044441  0.1829328240086076
  0.3551446634072193  0.2249620371873554  0.1590225115527620
  0.4742242197411556  0.4042985009344618  0.3222253206045174
  0.3594550454720239  0.6708886111520522  0.6148938223442180
  0.2760591696779415  0.3576595806280323  0.4508933531249016
  0.9531437098548832  0.1674777398571084  0.1394198399017992
  0.0234463929521417  0.2928563659357487  0.3245526273073641
  0.9088923702865555  0.0460566175989999  0.7789347678193174
  0.3301184742664621  0.9799155292046113  0.5585379803728758
  0.3160413350519972  0.4341501114129730  0.9920541118375191
  0.1853414006758198  0.4769562614424839  0.6443553562515478
  0.9984122449634849  0.1886776135689349  0.5260531737125086
  0.7337378820676858  0.6187435784667544  0.6275667931504897
  0.7471663544498180  0.1271122719874812  0.3876547292081804
  0.0762415103333147  0.3237196773303863  0.4476446888209059
  0.0422028624242795  0.9793977679192080  0.6603596404157535
  0.7343255370343265  0.0599794706476717  0.1759992107778919
  0.3144652519971570  0.4861534779639592  0.3898830446042938
  0.9387567241159196  0.5760063164500362  0.6243720902833215
  0.7836920211485577  0.2040774568945704  0.7193556633629620
  0.9153821507358161  0.0717435588854237  0.5507952660373130
  0.9650834620182771  0.8106414192722036  0.1348539863396681
  0.0574853387912286  0.2207206286215855  0.9156218655340638
  0.2281205900331006  0.9044089197429763  0.9431372742516696
  0.6646012224232311  0.9165829960555121  0.2511093120499550
  0.6660430877487616  0.3266817833365598  0.1069652317156835
  0.6310971184926922  0.9279746163345032  0.0996669569619903
  0.9164952187048800  0.1899841815255001  0.5059708088122523
  0.0598835494236263  0.3405761133162774  0.5287575776708512
  0.2545698933568932  0.3697973881159754  0.9953504938665636
  0.4348730682480528  0.3434085301655118  0.3358582251702113
  0.4217898692004829  0.1702258739554813  0.1455199544451106
  0.9028811892731368  0.3624028010425812  0.5871279793997786
  0.6734027604039189  0.2835059020147616  0.9748082731059059
  0.4722629646327935  0.5400878189906222  0.1463461994518976
  0.6889131801763481  0.6716137363866722  0.6790266121981920
  0.3508750918370241  0.8641258360394370  0.6161237913161138
  0.8622374747861417  0.1854446365555383  0.3713529994087529
  0.7614347379863876  0.9401392078293700  0.8389589570163037
  0.3625813505330641  0.6361117431122090  0.8278855001514943
  0.1728035754502190  0.7030181833257666  0.2646312710295005
  0.7153138443099977  0.1870380518570794  0.3270259735415902
  0.1621806444415937  0.8517253243090879  0.9274952181400887
  0.0996509505291880  0.9152687595256949  0.6288833127182210
  0.0404553600344482  0.3523511658368753  0.7560631598600321
  0.2462473376307479  0.6220467874504232  0.0858490487425543
  0.4990133492143441  0.6709101127724901  0.6041839971769170
  0.6784128627933916  0.3976462229795508  0.1035588720182528
  0.3822706406109523  0.2499091478262817  0.4338585345111620
  0.3355372569705952  1.0015976655225052  0.0298955374172841
  0.1077426260805679  0.7278529061474818  0.6970845258172973
  0.4204515239552014  0.7024879503689064  0.7187628634589646
  0.8456482781379548  0.6961948126835051  0.6326269906918569
  0.1526726109305297  0.3174337055320608  0.4263818094319646
  0.6183312440866428  0.8472916245296180  0.2983581362946414
  0.3885479157036824  0.5728873330790922  0.5531446388524057
  0.6424874992542680  0.7842337252323311  0.1181075567581690
  0.1668290334574304  0.3409768767691940  0.3148277976360667
  0.7199201472606878  0.5344927182823945  0.6794792524776024
  0.6472767829686412  0.0835819919859759  0.4754938286619375
  1.0044357529128787  0.3940677272045710  0.2354268649218629
  0.1474437044765688  0.9259332942521739  0.8866728337452396
  0.8482405516346622  0.2005552081116574  0.2254825283193172
  0.4943790788714479  0.5424366660334837  0.4834096146176116
  0.7982897032228474  0.9910539888235573  0.2035286550735820
  0.5107998269522011  0.2450292040570195  0.0568535189615936
  0.5256909975123196  0.5619736789377292  0.7287922361481202
  0.1455601914053651  0.8430995402167093  0.6263054997133097
  0.6494080355459757  0.7353268021086614  0.6487905990034883
  0.4455247189051835  0.7012400049816085  0.9122293322227782
  0.3459291481449194  0.0521529263027619  0.0866959461288745
  0.7359627927876148  0.8229219065326417  0.6580726530440874
  0.9304081958267825  0.1525227679556241  0.9555959738528154
  0.3260059867575575  0.5572270833190681  0.2282352540282413
  0.7826955835206404  0.2099947500837312  0.1687226554854731
  0.7793714770208383  0.9643447725912241  0.9276869413166650
  0.2481322465517399  0.5281159438720051  0.5251557678271973
  0.3333960076922077  0.5876590183933044  0.4029555164011491
  0.2462737991825517  0.4255175244148667  0.2570565345863773
  0.8802789417952378  0.6418476030155938  0.1384859608811283
  0.4165277470934494  0.3430615882817146  0.2292293598936230
  0.4778996571752092  0.1297923962272436  0.4373106083508450
  0.6312284573299841  0.0809484979417717  0.2721860952177053
  0.5206535989084272  0.9468635355408022  0.4774551758309837
  0.1403486479411203  0.3991128419375408  0.8608823787106782
  0.5238608334351519  0.7928228105080476  0.4828769304779720
  0.7001652687041133  0.7893647714572979  0.1770427302806813
  0.0874743551262313  0.3171254466016812  0.3604304834658381
  0.1225489091923266  0.6395682559542812  0.6934014191128618
  0.0584965689450801  0.0560171829311753  0.3228015881820267
  0.1723149843659738  0.6195885169425558  0.8783943429331286
  0.2669472308780317  0.3479506559993488  0.7780741683515717
  0.4491192296395042  0.0965924083593625  0.2804227693032311
  0.4338584709356225  0.7990031137030102  0.3555802470692703
  0.1597220474340422  0.8757468281199952  0.1511153135032649
  0.7274932305979698  0.5686253593888031  0.5040893057273109
  0.8707109933634292  0.3745655892562115  0.4376899625612642
  0.9385660739173183  0.7719274422167103  0.9081308893627621
  0.8690096585307017  0.3639297713092728  0.0107545713577435
  0.2063261553472854  0.2917192994365445  0.7542104311895556
  0.5238373075950321  0.4055378625621406  0.7461700106124652
  0.0354649218317904  0.1202177887053124  0.2527874729468719
  0.1052973965115364  0.1899463858563815  0.3571554727614731
  0.2441925588532635  0.2154088294137519  0.6223216197021644
  0.2950062221072745  0.7869166513368709  0.2921706588130263
  0.0869730906027005  0.5192867966626062  0.8159348719070469
  0.9307782579717415  0.4707730202536002  0.3696784829097691
  0.7510369749127085  0.5844017790764467  0.9291158843347828
  0.3056710155566570  0.8958666946652660  0.1007458667239691
  0.3954081383262196  0.0736494611031074  0.2302034410030165
  0.3091015624948840  0.4176225438080542  0.5949269642022742
  0.7634852914714613  0.8574459550748315  0.3479564923369438
  0.3523420723519742  0.7383195029743850  0.1541362866418721
  0.4481413498316590  0.8957368824886086  0.1592562159617435
  0.7864505682579626  0.3764230722349541  0.4601110846935910
  0.2266429664462054  0.1105502028250521  0.8852502073992868
  0.8071402643403045  0.3213692589473366  0.9264601035466811
  0.6855990833861676  0.1352087507933979  0.6097489176710329
  0.3476704255092672  0.1019051994353652  0.6269049142829195
  0.2341141113592936  0.9699908222374384  0.7622796071036591
  0.0564515861471855  0.0574523693179448  0.2018201202391660
  0.3714766918017710  0.9609867309439434  0.7092506209082361
  0.6095133770842186  0.5683167274796895  0.3732848424486087
  0.0188962100080694  0.5440487404251548  0.5076599592384257
  0.2053829673539375  0.8442208349005146  0.3490664588889715
  1.0009031410221183  0.7374062195720437  0.9553529340264184
  0.4933970242951152  0.4518986686092901  0.6913325597128085
  0.8242508209862955  0.4477583724208968  0.4782678149069262
  0.4473150474221401  0.9447874089672456  0.3404088519156316
  0.0811988474196911  0.9853324897480609  0.2622497153317043
  0.5893419492412210  0.9672425925170124  0.7166746557033297
  0.6607938189499853  0.6907498809746101  0.4424590413280470
  0.1489819031021140  0.9491820027489632  0.1321276701541751
  0.3555850921723141  0.3597570221908791  0.8655049781199378
  0.6008386197987825  0.2342002488322829  0.8050152858743640
  0.7927725023049030  0.4669187744249226  0.9492612479336774
  0.5055451181607119  0.0509884383627815  0.6607261492734368
  0.1121408800323733  0.5540244545081037  0.9941270227755775
  0.8877504714273885  0.5682243330186685  1.0052089619186368
  0.6892605190972096  0.7662612469209144  0.4118205149783800
  0.9055943804180159  0.6721123422078786  0.7949077206936311
  0.2646878639492417  0.8085638958333584  0.2131438522452553
  0.1874813894462061  0.0693967650180646  0.7381439069819926
  0.5598765653108040  0.3400356843235521  0.6226198459467737
  0.6769672741065574  0.6318602761978950  0.4907638031889656
  0.6962039406097085  0.5778829323417732  0.3568042119996284
  0.8672614255491493  0.7895305677853935  0.3718348466489603
  0.4525172879414584  0.4511854389272243  0.6250631783931605
  0.0546392542528581  0.4661585515134771  0.4545998540669665
  0.3460110034682804  0.4201288477237138  0.6684056312460163
  0.9034195066177385  0.3947020118720550  0.7674706567476890
  0.6905990598675289  0.6279075376022699  0.8321865102813558
  0.4384168923234685  0.2148828683964398  0.5770784792082736
  0.3825911943158575  0.1471396321633568  0.2842211270075151
  0.6471674385851267  0.6416007055000631  0.3411390291930638
  0.2258931106187559  0.8992138900060558  0.0845948061689984
  0.3315801980255673  0.3300052286221181  0.5754075315376763
  0.9587599429451973  0.4268880568086197  0.8017920143696434
  0.1192142728009190  0.6706164919796012  0.7826216370956648
  0.8507416311768555  0.4408545909152014  0.3924630670905062
  0.3151855679808975  0.0993516378299697  0.2211724319500682
  0.3295509003311269  0.3076253156700409  0.9236648258837300
  0.9169129870450232  0.7564423109961604  0.8195073413765657
  0.9110928803748320  0.6441319067769481  0.5129155460663830
  0.3964264893938509  0.9168793093075995  0.7673071489336047
  0.8607958190705209  0.7555750591217630  0.8744257933387726
  0.5897290722525828  0.0212943527607610  0.6660197432030313
  0.0590412722804506  0.0847048687102877  0.4210235059476465
  0.1104847682076053  0.5190479421659229  0.4737121200279296
  0.9160424577757673  0.7092444840190375  0.9654600668069661
  0.4220125665005410  0.9670025366458138  0.1807400228127352
  0.3915004745356226  0.3463367387148941  0.5344389573499697
  0.7962713723726087  0.8517421275563922  0.2649282904392432
  0.8143066373328509  0.3671251509980488  0.7774282238831038
  0.7556632754179516  0.6261578651299018  0.7844446201612203
  0.3965298888805991  0.7937351713501837  0.0553307880340291
  0.5468915679977756  0.0827866029487975  0.9366660227890359
  0.7420789183866873  0.4271520484875513  0.4964811255218424
  0.6126185723166866  0.0780699628306542  0.6148315315479798
  0.4759787230040197  0.3193744494775104  0.5238495317467409
  0.3974190898704497  0.0520933862558200  0.9076590774457762
  0.1610972766397098  0.2837919990272798  0.6971833255838001
  0.6764820704053152  0.4365735423055541  0.4334965367388438
  0.1529389059265210  0.0933441190713025  0.1751494673265773
  0.6000578094437664  0.3427549565219291  0.6879190614609659
  0.0923595513350959  0.1941808422081674  0.2491952692290689
  0.1014628853254652  0.9054476795614645  0.2827727280842808
  0.8084698569821717  0.5887952498147053  0.2523990169537401
  0.2041942382140192  0.6398366468961255  0.9529360038142761
  0.2698171487848323  0.2706416407383618  0.5745860696719191
  0.5403846756741048  0.1061351671776592  0.5797034810585364
  0.3554976607071277  0.2612363175067388  0.9843902546917108
  0.7127765368165059  0.4417224304726521  0.9645392583438132
  0.3723961044358939  0.1569929221979400  0.5777822622540231
  0.9085113778469008  0.5195169538080733  0.2717470783144426
  0.8705238802010550  0.2773985687359506  0.8866083594482593
  0.4780729193395699  0.0211895338814352  0.9236348083256863
  0.8468253540208119  0.5161732645008749  0.7466091755423467
  0.1574463997016267  0.2430026606166455  0.6197428126696618
  0.4582518261659643  0.4182907572860121  0.9405017517925901
  0.1872494928460544  0.9493266038154040  0.4806739072508409
  0.2195915099630935  0.8814574159058035  0.4889378353367790
  0.1404739268067031  0.6936965680235756  0.9529422809424956
  0.0654949575432720  0.4591034628338750  0.8688857226185251
  0.8599773704169371  0.8167038928548617  0.8124401453462530
  0.8379072849016863  0.6291345177678795  0.9907257737126979
  0.6331096463881016  0.6924323536772871  0.5239618850299749
  0.2900938095416260  0.8417719607637160  0.4793252673270558
  0.1647790142443667  0.1392464537398089  0.2410680209173869
  0.2621023968406448  0.1315519483950136  0.6292409392371786
  0.9980389504675802  0.4766889559796278  0.7434280568294994
  0.3293124048593229  0.9749532217931944  0.4228311195930318
  0.5031855130908102  0.3919046932457376  0.8785794385938648
  0.6140480289526804  0.6312006561183910  0.4274615970799949
  0.7911872054926156  0.8455477173472232  0.4915611716750558
  0.7043077458169804  0.8301752361489478  0.5114418008085471
  0.6877857285753007  0.4906788065544602  0.4859656324275902
  0.4188694885210240  0.4166919431097477  0.8753925657754770
  0.9673575778405973  0.7098473691961283  0.7844872065504145
  0.8914963241810985  0.7213681949124233  0.2346249007232835
  0.4163708858684691  0.3253305359432097  0.0076486928231141
  0.1880275484933443  0.1784650780822416  0.3688796076743022
  0.1002756148093236  0.9678701880319664  0.3464279644089948
  0.7235086121464795  0.7192229772516855  0.2775577184644343
  0.0744056327674429  0.5910189080904092  0.3887921000367217
  0.7843270882793235  0.7265304063674611  0.8923944859511411
  0.6851284478937313  0.0356403258539911  0.7343019453399807
  0.4548523684837574  0.9289164593329483  0.7030045620989486
  0.7632664453837559  0.7107739175022125  0.8061955188696432
  0.3849158907009361  0.7754123188006006  0.4252653391538452
  0.2264495174389334  0.3453640245861721  0.7038050145034471
  0.3414012156350889  0.1183264653314649  0.3643013071369991
  0.3950258288636058  0.9305100007929892  0.4089257174715507
  0.3697764045631167  0.4769496867770822  0.6008215395511786
  0.8224998793382687  0.6464075492548105  0.5322765283439236
  0.7574803649053107  0.3869818992446649  0.9257557751924188
  0.6674039763587927  0.2263351018946295  0.6188988527985591
  0.6276008991143531  0.1938330290992210  0.8781439916798837
  0.5874209276696710  0.2263041103071534  0.9373704262119207
  0.2054202849473100  0.6777716506939577  0.8124517416833091
  0.8947225217852456  0.7815023450022082  0.5183369080853416
  0.4807174894134437  0.9823988648680128  0.6482654035758104
  0.4761746503843555  0.8884856759858356  0.7854465136725730
  0.8213588397500148  0.8426133202872281  0.4091993181613602
  0.0090134620021706  0.7802791856567586  0.8015218784433714
  0.8225713685603196  0.5224922544343003  0.2976449622010250
  0.9584240388437810  0.7128950935475562  0.5345888038583243
  0.1511044481501383  0.7409207669101812  0.8244605162632154
  0.1394078738398677  0.0438802414587480  0.7933007674136383
  0.0707415223611584  0.7294769324865732  0.9116324666299316
  0.4070736197394514  0.7667268279221096  0.2052328166332931
  0.2474534753574612  0.1383025031386554  0.2378253299435260
  0.8997762533061328  0.4166274619020538  0.8515830562944176
  0.0370657075596659  0.5800576140777137  0.9540369045889542
  0.4087627059115043  0.1614216609543537  0.6505576073674011
  0.1940399396427793  0.0657719651205137  0.2416351829069673
  0.3365238174928171  0.9142342245325918  0.3597276565646330
  0.9328012758447861  0.6553209347653790  0.4321056169476823
  0.3105870763967933  0.3154902633783120  0.7167243827560820
  0.1465016230169063  0.0452489469572112  0.3068580370405774
  0.9381501548330212  0.5644845483019295  0.8189157088552206
  0.4174090710640880  0.1022658424215022  0.8527585776703903
  0.7899548575971578  0.6498093981404622  0.3892705038972376
  0.5550507430856404  0.1949841844163700  0.6696890945226323
  0.9570245219894972  0.5369509798983535  0.9508605757151529
  0.3927890631875736  0.2474671150588474  0.6438324260841043
  0.8405358944376894  0.5857749394947406  0.4018432059751769
  0.8806339395955676  0.6140110138446734  0.8548663057322773
  0.7469680335422425  0.7123817007952313  0.4233132330082445
  0.3054520978666067  0.2750312291597349  0.6464216181713923
  0.8643245232229985  0.7258701413959303  0.3206967014543574
  0.4326289234366354  0.3923954117966790  0.6631223257578663
  0.9626465085216560  0.6709538346421036  0.9249775980426894
  0.4988937789118605  0.3502010236991974  0.8032809672477552
  0.7618236953074539  0.6324280243454969  0.4699887048976264
  0.9022113423300444  0.6625749916324334  0.2862435272124186
  0.9400646638322275  0.5115922446573483  0.4278775674869253
  0.2955170047169535  0.9434807865260700  0.1655274010874170
  0.3598775933595501  0.0587291905045637  0.7025127138961594
  0.9235860824406653  0.7175664454977766  0.3847296845474162
  0.1879733550494891  0.9746404708001265  0.3630089763524231
  0.7557492697537249  0.5680825549720191  0.4189385421544908
  0.4186625830244322  0.2813639312831408  0.9279963848691627
  0.9864435831416961  0.5890266321960180  0.4412160454069131
  0.2623856203909041  0.0572056662727946  0.3436729792743585
  0.4281612360504821  0.9974751427252146  0.2611377416783754
  0.8531931551957235  0.5182906795385527  0.4478740733644145
  0.9017843246454480  0.5760514571557838  0.4644870263724395
  0.8421660548658402  0.4647061816746908  0.8899647281221340
  0.5580902937133435  0.2327894061707634  0.7419364373291789
  0.1556692600537276  0.9288254006560969  0.2214236931548267
  0.3991641719876087  0.8706531468622187  0.2271529014583328
  0.8697660671051218  0.5294702504340064  0.8346411361705346
  0.4515658105662617  0.3078034828757694  0.6675131296629779
  0.3781162830459007  0.2771079411515514  0.8512338477770525
  0.2461135989029816  0.9238322839932297  0.2317444585237974
  0.3355549041333278  0.1342045638784504  0.8329299261413082
  0.4121945672197407  0.0613548241285687  0.7663230376604723
  0.3051475367690070  0.9385145227220790  0.2806393489252119
  0.3145546473935971  0.2220442318412602  0.8431729509325956
  0.8758475535020527  0.6469350107301247  0.3666180373062991
  0.3262296009891547  0.0915468791151620  0.7697958512841103
  0.4731046483239822  0.1171391947937827  0.7946456197052836
  0.3345115384421524  0.2319688154587976  0.7032287796928153
  0.4793529494232691  0.2621777601672786  0.7243316551748724
  0.4135776942658438  0.2016171973862544  0.7221019826890279
  0.4562925620259202  0.2065495200296335  0.7868891784115710
  0.3108559676959826  0.1794919752860300  0.7648617483342885
  0.8148053306660409  0.7398319159637086  0.0390717190990015
  0.2453190502950367  0.9871699838513733  0.2966255895080004
  0.0316787596312924  0.5800747192245828  0.8229413541793962
  0.9306147532988511  0.4989504736133853  0.8840389743927577
  0.4607048817767179  0.2463587073070342  0.8695948807538475
  0.3522067183036969  0.3216106581560418  0.7825798211620325
  0.2253560786817102  0.2057346237909537  0.7603343250933177
  0.2307217148350152  0.0344455618102110  0.1643149029747729
  0.5377859990410383  0.2809301868687046  0.6634307800627161
  0.2461231655508008  0.9238161608653048  0.3451478860368164
  0.3092790480675594  0.8829684054434299  0.2134506194815834
  0.9754501382367952  0.6454760133015246  0.8445219894808182
  0.2050085441683459  0.0541137429813858  0.3927663688139815
  0.5155303731503029  0.0917354424617277  0.7299464836698563
  0.3863855251252852  0.9340332405742826  0.2903899575169268
  0.5605673259491084  0.0874933114010779  0.7934794563845708
  0.5814045166947055  0.1478144290617337  0.7287203425433064
  0.4825660854576043  0.1625500595355714  0.8572346513417651
  0.5166439728905802  0.2614529208168242  0.8084610210613546
  0.9931911002230720  0.5361166518533159  0.8847133672121233
  0.4352707722208688  0.1159280516465020  0.7083252453407546
  0.4551407764419563  0.3463295157668288  0.7404271612643565
  0.2679982463851596  0.1715530838479762  0.6994567992360082
  0.6519855153970175  0.5013819241153453  0.3355280302912573
  0.9084805335516705  0.6260270352326451  0.9373097139999218
  0.9696769628931756  0.6044835518316565  0.9951931948447710
  0.0330069239166460  0.5297934144781855  0.4133153509282476
  0.2420636522426770  0.9759673910279986  0.4182180855438980
  0.9407966755112893  0.3811518304775671  0.9662157094051277
  0.2489770135461059  0.1343486958391119  0.3544866306158129
  0.1280233586194417  1.0037697910108856  0.1861167894970786
  0.1841619121654209  0.1995859385739192  0.6805448591354705
  0.7981854968870076  0.5057841806857352  0.3818794664830240
  0.2401055524647450  0.2010788018295730  0.3007846292237456
  0.3699241213381325  0.9009358895778823  0.1561016024789757
  0.6578229011132378  0.0799013297088734  0.6769981605188004
  0.8381498452473963  0.7733588007768867  0.4542932178804880
  0.7340443861388276  0.5640335976627171  0.8449994353633394
  0.9901021629417486  0.4338738600639271  0.9830460217685778
  0.8733126591634770  0.5030953823706865  0.9450232242389626
  0.8905422481047531  0.3540125865558942  0.9204058204782408
  0.6412993914668467  0.1689453507491418  0.6698277971062483
  0.2669822874524550  0.2533811712925376  0.9036509732114878
  0.5899551726642853  0.0483442406367907  0.8641484787869925
  0.7938298909509180  0.5104338046064995  0.8047950978903162
  0.0681283852269698  0.4542325678043666  0.9620311403950298
  0.6624908101984671  0.1181553837245196  0.7476109630910157
  0.1891719061961186  0.8572678383457925  0.2246487760286048
  0.1656698707597774  0.1959542644413966  0.8130585347733406
  0.7092246173686837  0.5082332776046022  0.4015704403798789
  0.5430651827696225  0.9470539442749230  0.7841218379952060
  0.0613482784670507  0.6629710517429886  0.9755371299514323
  0.5194385431314988  0.1922190685763805  0.5962508054238447
  0.7322898945217803  0.6396174566603052  0.3230715428265289
  0.9911124371134422  0.4463751376924957  0.4261400051252603
  0.5225921333025763  0.1693824404933027  0.9340207314552760
  0.2849629509486558  0.3610263150938025  0.6430294321459892
  0.7237622803446275  0.7858693871607290  0.3283762077512570
  0.3509409583903525  0.8023174000753815  0.3443850978422259
  0.3497653069973994  0.8534887986225779  0.4165747332063899
  0.9707223274904205  0.5339407688258132  0.3388121600901077
  0.2871532878711743  0.1707181857240873  0.8950435117947005
  0.4804055645756203  0.3347917784659997  0.9418006634098888
  0.8100953178823386  0.7815849577024178  0.3101862306073009
  0.3827457956155834  1.0009096246133871  0.7906969137314775
  0.2924929791739663  0.0868004368892528  0.6870068789167362
  0.4560680745832650  0.8843318971628933  0.2818772106510136
  0.8703747035724354  0.5822864046028946  0.3143198190171171
  0.1597343708488798  0.1489129079017011  0.7456132298949221
  0.7927464658070370  0.5309451251664082  0.8901677355645635
  0.5214569515873781  0.9964412276888923  0.7321604672679846
  0.0693326240340079  0.7169939540733874  0.8258591648767801
  0.8305118016212706  0.3832419473196895  0.8696882260098000
  0.4793177424837152  0.3650874654042826  0.5970667448140874
  0.0989529179312948  0.6166175834782486  0.9301931695273150
  0.1240908147378946  0.1134845596490072  0.3662597728393973
  0.9823833438143988  0.4298125582797609  0.8900300993798737
  0.0482459966534189  0.6412947655023157  0.7975717572864746
  0.4946685202483395  0.1360265758823857  0.6481256982856648
  0.8056298541348215  0.7042923394513144  0.4858827535239700
  0.5643969213231530  0.1327673590906395  0.8670769025375821
  0.4135657809898537  0.3764604256415994  0.8065036605847087
  0.3755126784840518  0.3762417699180424  0.7235247824602673
  0.2740005443347660  0.0731545984600058  0.8298446758740285
  0.4118824295283834  0.8082955315369493  0.2807916678176797
  0.8267225579908354  0.6766850662085184  0.8496106182185710
  0.7496505092925058  0.7780732114789459  0.4723764983573482
  0.4360718795938997  0.1940970614455681  0.9278911896386877
  0.1297960617892192  0.0442084696408393  0.4026242010657191
  0.1125750095778117  0.5979833151759762  0.8411863171066788
  0.5201892483292972  0.3055699992979596  0.8738618311166664
  0.9540180689648793  0.6046156282361516  0.3043267153614794
  0.6213133559842177  0.1479275198958617  0.8117971943014846
  0.3719999351989384  0.1344219600168255  0.9133214613109936
  0.2825353077728973  0.8482530861769223  0.3536511655641393
  0.3119036932717018  0.1466716037089378  0.2942874696252132
  0.4156630616231194  0.3038843587539580  0.5944985213778965
  0.2305039102102352  0.2524137770856981  0.8226437869447811
  0.8275854061714100  0.6132010758750145  0.9123110521577951
  0.2793485226130383  0.0299267196719643  0.7414886392832823
  0.3419252546913403  0.8076258270745896  0.2154036858593215
  0.1932345528730415  0.1123059267658816  0.8093747538925471
  0.1050959795096303  0.1269359121665510  0.2975444915868971
  0.8954574670796116  0.7202461511428921  0.4667924359396863
  0.5835634904519492  0.2520591907661893  0.5986042010633403
  0.3620351757708988  0.2220402686776102  0.2825558260331022
  0.7764183795010726  0.7094839834183062  0.3407514859330437
  0.3686302190594033  0.4313081010804318  0.5234507203051826
  0.3662115767820181  0.8693847973819504  0.8379863101058166
  0.1135339965116575  0.5798330001093464  0.0771210582472064
  0.2800777121675171  0.9593719537589006  0.4904890763769492
  0.0098923387674335  0.5232957360903858  0.2711607733054979
  0.7506394921273475  0.3848011389281386  0.3101843035506901
  0.7359787387379956  0.9759111314405755  0.4461794950811907
  0.9991623800259328  0.2012291677481023  0.2875146564485250
  0.7428643586906706  0.0897735962282652  0.8778548797508260
  0.9245069073750711  0.4139009655945554  0.0606096922738810
  0.9870981082339854  0.0959771508061165  0.1135048404386034
  0.1902369923138509  0.5401354132594175  0.4633749067599380
  0.9089502697780311  0.8571542489346514  0.3918633568288244
  0.2582774058100998  0.6275729702064315  1.0053134717687502
  0.1739234142301759  0.6082503154760793  0.0341901609507603
  0.4353427082337940  0.2286305821045946  0.0390375378130182
  0.1558618317524834  0.5532893951041525  0.3120155661376350
  0.0834738785487351  0.2206966425529615  0.7922036006752720
  0.6602042674703965  0.5449802390076607  0.8089129375412145
  0.1365683029765208  0.0931460439842524  0.4631335558799587
  0.0838366771516703  0.0836831102268292  0.1247263057983952
  0.5811229879533235  0.8771853527089657  0.6607315230225476
  0.6757321339948450  0.5183119223730616  0.2535726082423950
  0.3059440424345370  0.2389089368337471  0.0678243059020161
  0.0399316019967611  0.9430925265286624  0.4053828192910986
  0.9370973251869676  0.8104022784604346  0.7578512543188964
  0.3261512160425167  0.7072798809899703  0.4229685736714191
  0.5145113252957920  0.0865917682390440  0.2221044824761925
  0.9884319722250647  0.5215774508076079  0.1072172650130865
  0.7403807255508006  0.8752449664785884  0.8977675868014644
  0.8745523723484284  0.2502948322965680  0.7986152295959712
  0.9702457182282027  0.0715207176166480  0.2329788612695741
  0.8869278390675671  0.4379252335873978  0.5421463762127762
  0.3251559098827434  0.5063387542957367  0.6754416438892998
  0.9103217467753048  0.1534753064448364  0.2046511880991914
  0.6223410134973073  0.9139945569137072  0.8083794081944627
  0.4606720838360099  0.1435891511528127  0.3542817543526222
  0.9607070722686122  0.3361853788484271  0.7762668724036451
  0.6555170209886737  0.6179052433026869  0.5752968894635875
  0.7497830971220470  0.7127766103270761  0.1907638590147429
  0.1849595388039217  0.2969923437157639  0.5615619739457770
  0.8023236597416615  0.9229303924700004  0.3215637283638416
  0.6018830673310229  0.6920354701774247  0.3771681451797770
  0.2253502548839293  0.1575866718929996  0.9468299208723824
  0.0291428606187296  0.4502953107612050  0.3188642033606276
  0.8587759517479004  0.2063437943425005  0.9419027363614375
  0.4682410636854895  0.0357398083471794  0.5939409663875387
  0.1634515634895997  0.4719522211877153  0.3527077859224047
  0.4751002355322665  0.9330984794220311  0.4149404473111761
  0.6221309678476219  0.6604205483197808  0.7872897813888576
  0.6834300229334151  0.5851525944960970  0.9683680615856314
  0.0781315338233158  0.0829193577313235  0.8566479985493931
  0.1601632996618540  0.2646478581061256  0.3501523635136127
  0.1978695447418948  0.3899777782953591  0.6477360234644666
  0.7237658090174633  0.0403546156666206  0.8145757201192217
  0.5629674425580654  0.4041681226789346  0.8303716603119763
  0.5899099943274124  0.6382975533516849  0.2749253872930618
  0.5162809038654600  0.8549937133019553  0.1392342108446188
  0.6005175307079610  0.1191200531268777  0.5320054120853439
  0.2738292898785138  0.3884332363213492  0.8427108190412210
  0.7024356127447111  0.2285537607633868  0.6919782514169601
  0.5436455182798290  1.0077983126383394  0.5957947437712257
  0.7448066413542587  0.0520063667605214  0.6791305096771995
  0.1172868221281532  0.2348496163677628  0.8717009548513621
  0.0304206197413751  0.3517428422762826  0.1003375887815779
  0.1842640337520011  0.2852504459319489  0.8882798376069608
  0.7858316339429475  0.5675911253366207  0.5702449307479425
  0.8317355381930420  0.9086160807912984  0.4648708751326860
  0.6024050493021758  0.3723062264877654  0.7730196385172452
  0.7414464750948261  0.8492486390007367  0.2008700046446386
  0.2901057087600603  0.1854921920175630  0.5562677922925678
  0.6273594994633347  0.6230011437290919  0.9271141404715978
  0.2477607296859120  0.8881454530842652  0.7390591323362553
  0.6479714731855724  0.7608891493136433  0.9019205611463008
  0.4930922456289848  0.8073245039434448  0.7798946982371088
  0.6959978801422344  0.1164059583445456  0.9446293766923524
  0.1150148541434710  0.8623018468847126  0.0879227869100530
  0.8943731234688477  0.4742579652572310  0.7059220881840130
  0.4123459594556015  0.4000471927126339  0.4650749466939648
  0.2391247435942163  0.5378922276651943  0.0670108933655858
  0.9943216195123267  0.0151343839533904  0.1657379563574621
  0.4952172958305737  0.8955288035997483  0.6357845541683259
  0.2288555216128203  0.7682102277883922  0.8535349629800119
  0.8034422737315793  0.2420904028240837  0.8873139315192192
  0.9287823132412468  0.8546519929559621  0.5404146902592055
  0.1233444446610725  0.6591657027513740  0.4042798192634267
  0.2998494610759225  0.6855254748389924  0.1594413790439703
  0.8355314468403122  0.3805951798711187  0.2881105786869522
  0.6460144762252609  0.8379430768393848  0.4503847291379138
  0.9391578056075781  0.2822141256227221  0.8383680432921711
  0.9801116776075143  0.9100408012173165  0.8507783188915210
  0.7624720574865392  0.5082586746144807  0.2352243721011255
  0.3649473216132395  0.0996090779705127  0.1576873609492105
  0.7038879639489162  0.4174047719151236  0.8767716226893586
  0.2398549970708580  0.7202738133426222  0.2887837834051146
  0.0180665194476328  0.8691620176580177  0.2599110170190205
  0.4919435127757909  0.8138355888905849  0.4044905887516396
  0.9740247313680293  0.1055060883023756  0.4035382270943416
  0.9876926334433912  0.6346096081940519  0.0775868381300621
  0.0707742968084322  0.3473257480599558  0.8261230853146213
  0.7244284512225279  0.1802178427627208  0.7500259984237108
  0.7991444319068808  0.8529704588790480  0.7651756066181586
  0.2682866140861921  0.6978899996233291  0.7223590788424866
  0.5923455012374643  0.2079541611288520  0.0604880452549206
  0.7907879284991383  0.4526385979033652  0.3266351296909035
  0.7591951674737081  0.9195881355772479  0.1749312540186515
  0.0142852537811808  0.7919644629640857  0.4222133267715998
  0.4084004367972605  0.6912617206456436  0.5477309509321147
  0.0859371233641672  0.6615914571969150  0.2486764250554349
  0.5934608964297130  0.1374786434213001  0.3050532341589023
  0.8078618270804976  0.3081919602216431  0.3267741797326597
  0.8400435219094589  0.7401528877360942  0.1670086024825443
  0.0833162433849344  0.2537206037793470  0.3018050106684719
  0.4816278882121520  0.7689389622585860  0.2135264569220543
  0.0319146094221166  0.9532606538430490  0.3289706740494833
  0.0112548554090410  0.1634560733151211  0.7953425586892492
  0.3429478346262120  0.9476830483569600  0.6371031100109914
  0.9520841858160294  0.1816246379044618  0.3600933727890395
  0.1398772121715398  0.5258495963940375  0.7597963960699927
  0.9876554133800824  0.9261389001559115  0.1956011998722036
  0.2521571402943147  0.1895672040076899  0.4318487713220808
  0.7466093017477995  0.1561700604265112  0.5646751691692636
  0.6892065758568564  0.0936075216767868  0.5383048410682916
  0.2863197284818291  0.0478593257719003  0.4535613964612503
  0.9689239312043105  0.6277525083215723  0.1870770829368140
  0.6941213603244588  0.6908294581704048  0.5920973333953791
  0.1487868826008243  0.3921644183199577  0.3631017023840704
  0.4752397885563573  0.7258883807412176  0.0743520899655277
  0.9034841469715006  0.9192005448410273  0.9102706867127467
  0.4586200265241231  0.7325429740493198  0.4124667067357574
  0.1400855603745892  0.8770345798734949  0.4806202286679435
  0.2815040040802229  0.8966475216926413  0.8181590489688146
  0.0376888242750503  0.1487752842164881  0.6613530179597974
  0.0363968021403118  0.8110346917097941  0.9944549530382473
  0.8595935911505043  0.4680491880365084  0.0787093216272251
  0.0206312190232273  0.4215897923127472  0.5304024454266542
  0.3052152374583849  0.3890628674524326  0.9246487683114630
  0.9123924174047243  0.2414707961383531  0.9854019963798267
  0.0934795881345284  0.8057220614221948  0.9530312433291563
  0.5200611622366541  0.2839113730951178  0.4655561968573505
  0.3049039129708427  0.1282567961631982  0.9612246824351353
  0.9467981927362139  0.3281563377776040  0.3653773055158179
  0.5389487197505870  0.8754471655551871  0.2872919064377594
  0.5521412412819358  0.5799505518804497  0.3091934731761733
  0.1282068347165358  0.4602517483244007  0.0960845727490031
  0.8318330172196470  0.9554855196418918  0.8667568763404180
  0.2933206202642620  0.1591044103558556  0.1658109931937804
  0.8791228222041372  0.8649666047891419  0.2519828126337306
  0.1491343339063289  0.2058979160661067  0.1819673270162439
  0.9350158713862892  0.9050070301491833  0.7720895971890989
  0.3326095558469395  0.2826970151987775  0.5001788160855183
  0.6461261794413159  0.9363073611806366  0.6835683761353442
  0.3050010244301216  0.6743735053104239  0.2778924570718553
  0.4030010116112088  0.6093319182917855  0.2294614850651367
  0.6894704744140329  0.9767772451120725  0.8011462791780791
  0.7686984338475173  0.1119426549237072  0.6312484428115407
  0.2499900044485616  0.5867052410188011  0.9194107985122599
  0.1488165121121530  0.0502926984599129  0.6619230730963398
  0.3079564075615014  0.8969829583573224  0.6859489958880032
  0.5548437403244629  0.4306395140861998  0.3002957401004126
  0.6442457673488955  0.4477707167060946  0.2812692284293678
  0.4747394816958531  0.0644669880870082  0.9961471020943141
  0.4381649474044261  0.2917382557260939  0.0699265981909326
  0.4355900762589989  0.9651840699910900  0.9190766760938470
  0.1373302435550307  0.6004906747426000  0.4527008346867875
  0.2100137831920351  0.0109150536866340  0.8279024184362633
  0.7803121639243599  0.3102779725058929  0.4122054765144994
  0.3544580855137424  0.0621031218604975  0.4229934845798670
  0.6376317988554434  0.6824575849667148  0.8694217942175055
  0.6779712354530671  0.0301456546901008  0.8805073811311174
  0.8471336393007284  0.6441388034327661  0.2157769398494924
  0.3494779555042343  0.4619492389540128  0.7414438922459476
  0.6944256710057017  0.6549212611534926  0.9170828908701574
  0.6725586911039259  0.7761856839885654  0.2641695388604118
  0.0322313723496623  0.1704721248718669  0.4035993837376644
  0.0732040984269715  0.5247885696565017  0.3350358725884582
  0.4932674373159851  0.8704693425041279  0.3581844088163532
  0.7114249692479889  0.4808617223605395  0.8166901447412348
  0.8299185875302988  0.5030148348795785  0.5360917565242851
  0.5797045859385830  0.5619214564143837  0.4578077685298821
  0.8975268442153480  0.3980027855088900  0.3504691843271631
  0.3034799442123194  0.2694408478953927  0.2974962518339467
  0.2153558751909562  0.0176698165874047  0.6755278742139438
  0.2682773093224594  0.7654277887922029  0.1376313632587667
  0.7713331062119736  0.9204765915263944  0.4020557254248249
  0.3643380271574399  0.2864648789228367  0.0817496400769799
  0.5017555996703795  0.9666562001450070  0.1755048881851479
  0.8422345616366952  0.3020934574526630  0.4709945809375066
  0.1727545073666996  0.5306107478969977  0.0256085659859922
  0.9974717941489040  0.3395779783352116  0.0095328064077220
  0.5832215033678043  0.9517226582630803  0.8606131140292451
  0.5609515537472249  0.3088537980643458  0.9456929827090024
  0.2109369352621362  0.2211928774782654  0.2296774035610254
  0.0486926902484735  0.8614884855313225  0.8303246607710085
  0.5207978698540803  0.9047969012988171  0.2172647519436651
  0.0599532793034359  0.6691589519164376  0.3369343948992836
  0.4966373923688071  0.4884823417669137  0.7668462467832703
  0.3694320277931206  0.6844448857994292  0.2172100887997954
  0.4680770194306222  0.5380512591766244  0.6862772146230910
  0.0889478303933944  0.7712726806543863  0.7614762887542853
  0.5809908785132022  0.2063148122688234  0.5251852816068809
  0.7635452041246225  0.4312544833257220  0.7753635892376410
  0.9430083347879830  0.5412388726668412  0.7326725389955075
  0.8740052667496182  0.5843207487738472  0.5470231070272104
  0.5647218461641794  0.1716761375120884  0.9951154434890971
  0.2122731989614896  0.2821893969430823  0.2915228883446065
  0.7630421835513396  0.6648045001713212  0.9588872039035391
  0.0554575449916067  0.5116315650678650  0.0487762926817587
  0.1371347809579481  0.1458518502357005  0.8687853752032444
  0.2523220375453335  0.8265065481898517  0.0830223454800947
  0.6227940533111730  0.2949746898687252  0.7464509690072193
  0.8285683579413751  0.6524007864321906  0.7667572691588381
  0.0099290986651396  0.7409839453295953  0.3647947511161503
  0.8140667363397286  0.8649410554786992  0.8502126843087021
  0.7614038656112468  0.6544621917929244  0.2402808373050044
  0.7243783275991117  0.3648244893949578  0.3961091384128695
  0.6409717214528956  0.5567663298859173  0.5200749416547040
  0.2002868726963496  0.8045117932233364  0.1543967824594346
  0.0730262228230883  0.1731788139438236  0.7344780775273237
  0.8130428260207018  0.4074996217626560  0.0491380171070872
  0.1313559153229115  0.8919035032046453  0.3571560476401362
  0.8919302917517491  0.8948780718619032  0.8325390905990485
  0.9253353039771021  0.2972142953951406  0.0305006162033602
  0.0650719034005822  0.0342865119993822  0.7938869756597754
  0.2050875894338290  0.7919792118080855  0.2730875268253267
  0.1611763490726350  1.0023847083005346  0.7251922203966719
  0.3896767952671815  0.4629508826713866  0.8124157822550425
  0.1511250877030469  0.4697595280212610  0.9697469466224459
  0.5633758561660011  0.5071853420327357  0.3530382188983792
  0.7234126894557620  0.7608218178749530  0.5540290042724381
  0.9552956413901630  0.7878148677779242  0.3518641014136556
  0.7235089088269305  0.5761449785777482  0.2710607589650755
  0.8405830346021643  0.7965859459926211  0.2241780517374889
  0.2356393933959275  0.8245696511626095  0.4265384361752469
  0.2846691811603375  0.9814020106846123  0.0941243915736437
  0.0536304146795687  0.6739675487092253  0.0679858720007630
  0.8500540003817468  0.8330038610145559  0.5557865498856520
  0.3693386083047837  0.1828317006276585  0.9742637935495323
  0.6308486644611749  0.0679481836031411  0.9346447281340338
  0.5322731674483097  0.0725012008677122  0.2951095928480333
  0.4977012068770836  0.2303994990970643  0.5246023572998533
  0.1166561984783321  0.1361401677671364  0.6830801004749203
  0.7051956685025851  0.4356736247404651  0.3481861250876909
  0.6314419701379226  0.7055390795291073  0.2960069328309532
  0.7499905944958942  0.3201234020876886  0.9829223797894903
  0.3724133551317629  0.8590352499937279  0.0746928178776817
  0.7308464431331624  0.5152761359444190  0.9906145328620105
  0.2556187847015214  0.6493442980987454  0.8579918571941058
  0.8248616718343227  0.4998055425055767  0.0196069351242774
  0.4445185805584144  0.2084179128916103  0.2923463682862020
  0.4772228487911071  0.0722182736861299  0.3634661603703697
  0.9540171543094926  0.2967542372823253  0.9269091219619218
  0.6438346556258260  0.2723543829737112  0.5590310566393443
  0.1684321406226584  0.5328454697223360  0.8503156808180529
  0.6909541629369625  0.6923233400887565  0.7733245225399775
  0.3717745889252922  0.8364244531694192  0.4889907004300266
  0.1914970827279659  0.6668870781871826  0.7291280546238255
  0.2074038985332806  0.2374145775659593  0.9533139832281012
  0.8565415954062818  0.2627738441044428  0.0414020972114234
  0.5163278855079676  0.8930455484610866  0.8578668223061310
  0.3063454342821357  0.7240549561792549  0.3492260977010621
  0.9280873403886987  0.3268171899167308  0.4508683107593777
  0.3244376666115537  0.8560451333030504  0.7644681449856269
  0.2517370277554997  0.0204955683403530  0.8851532784907530
  0.9836033741082434  0.3772770704060427  0.3212893814361481
  0.9292069958369098  0.7920955474173189  0.2105290659790621
  0.4531529096762841  0.5212686553698900  0.8297367397439430
  0.5814728167792668  0.4246195407939818  0.6848187415860983
  0.7200781076462076  0.7327160600223441  0.9456622361954097
  0.8847614051015578  0.3175477157882495  0.7407288951841247
  0.0808461712062471  0.5049263638096465  0.7224312693027722
  0.0957225074218962  0.6628368596686770  0.4885441012802213
  0.2073287400068959  0.3395311846663774  0.8478573863359125
  0.5439615150264048  1.0090998084964700  0.3374267403488226
  0.7571850316350589  0.3666373743816352  0.8344228554878494
  0.3888642018234211  0.7145469736967379  0.4747725287792951
  0.1372405426702793  0.3294716195297047  0.6170383157521468
  0.7421847884759909  0.4995800852738463  0.5532935544992029
  0.4535954611204348  0.1450934540045992  0.9953992461603324
  0.9643949468693758  0.4541913856883105  0.2851419072022587
  0.6353909917252460  0.7585535996933562  0.5725569966422340
  0.0509804465098430  0.0971227572270860  0.7331359690400354
  0.1309207554705047  0.4694788213047161  0.8992083849632176
  0.0434531456231708  0.6119015517774793  0.7220866175069746
  0.8304419608442721  0.4302175809360280  0.7180961936905805
  0.7894598313164555  0.5725271130100394  0.7377207823340729
  0.9739703310302351  0.7840833445378494  0.5001307280758078
  0.4155338354291570  0.5173194308694307  0.7470449688181510
  0.7996888883184095  0.9000523843261811  0.5467908671572335
  0.6079966778610282  0.2836916768074945  0.8829784410748257
  0.7069614371749854  0.7775656783793546  0.7949518240489287
  0.6784138521171077  0.8372235693203918  0.3675762264105553
  0.7233487580614091  0.7924733939076770  0.8804608841948981
  0.9788215869202882  0.7152474098240730  0.2176430615974567
  0.5382286802625503  0.3824028485826167  0.5431407170887630
  0.4625804212557709  0.8500471539459702  0.0814105578828817
  0.3634625169781796  0.0151926072300049  0.6280609134808101
  0.8547854012937567  0.7739824019388721  0.9602463779281082
  0.0348040263763839  0.7139364163039446  0.4762382313324112
  0.9125526409947701  0.6263811635136448  0.0679311707664250
  0.7066417610384488  0.1252320742361184  0.8094601794055465
  0.5262347171402580  0.9916545200126714  0.2488556993923177
  0.9650674619034334  0.4733030495628270  0.5173698296881062
  0.4516419150452959  0.7334870252705344  0.2898603635614498
  0.0998515479378699  0.5727970174983128  0.5271339590123311
  0.3245328101043043  0.7770862597049456  0.0680346740205331
  0.7914616686691572  0.8117237008870479  0.9127849173089573
  0.2684672442287948  0.2924145102666716  0.9713229127768972
  0.0451791599309598  0.3930794395243573  0.3840743954957909
  0.1031968575763873  0.6084709813444101  0.3032225678206741
  0.1423215668202195  0.8310189226949780  0.2949699295957820
  0.4256711716688485  0.4927344002586017  0.5533239715658771
  0.7802464774420422  0.7086194664697798  0.5698419502346468
  0.0373557413161820  0.1370033005727850  0.1577503751698751
  0.4679855051317062  0.7829733098517521  0.1391301136737321
  0.9638871774906516  0.8566069052898596  0.9136904807262914
  0.6477218279982608  0.4926011464394404  0.9404755299680972
  0.4671722423663148  0.8448251924291913  0.7152570858359534
  0.9315121179044838  0.3981476518453904  0.5002298292384282
  0.1425502093536023  0.4287283365737982  0.4365598178378816
  0.4355059783159850  0.9269423320293840  0.8433927208170360
  0.7402814288297386  0.9193850036752782  0.2552906661364465
  0.5002810015531671  0.3296820710251596  0.0555659587191051
  0.3864870116424953  0.6729090755213042  0.2885647807338869
  0.1405803272583909  0.7686218698148601  0.9028618350173216
  0.6595089388764318  0.3071512009800994  0.8776560114740699
  0.1350733666377926  0.4871041971850236  0.7196654014681038
  0.0190838680669367  0.8402896916817417  0.0390945013413484
  0.1128519278338433  0.4068558108756002  0.2704044448744999
  0.6044302654140620  0.1205237821862966  0.4736335808570278
  0.3422015769841001  0.6915907160233304  0.1223728682837667
  0.4076312825407630  0.6142395761912131  0.7062547875706043
  0.8585923140016075  0.2585981488953970  0.6640368914152696
  0.8985192323309067  0.0148161185001756  0.3205916617904166
  0.7466307446461569  0.9862728513015002  0.8054929096654923
  0.3105190182291596  0.3783577830330483  0.9970846695170100
  0.8682312123600782  0.9274420222537042  0.2571439074383506
  0.8784581882993437  0.4712358638104935  0.1340715058131061
  0.6720579158111393  0.6241542071600211  0.7073876866076049
  0.0434711163331304  0.1162595342315436  0.1069617882926575
  0.9305010702590515  0.2431185353469780  0.7969783851031653
  0.8219561091295797  0.3947176050255570  0.2370865452773257
  0.0309154473426194  0.5478528372857032  0.2265645361910907
  0.0448824002420689  0.9458163138646938  0.7355377859188997
  0.9358827483355574  0.3396591178284470  0.1555451535974681
  0.1748892180678562  0.6912418371320654  0.1737160431135888
  0.3170825358826942  0.6349897159318687  0.8586628296765438
  0.4277501352683457  0.1801774186589299  0.3762322495566020
  0.6043386630426605  0.7480648986857200  0.6183521426870658
  0.2858015934431783  0.6316378228446792  0.2471594948056244
  0.3523583105032229  0.7001114051921451  0.0149860765040630
  0.2523025858105639  0.6585968178161760  0.1715737973689226
  0.0293846091850165  0.1725604189745024  0.9166150408972741
  0.3137062078669342  0.6880057434386130  0.5889971781134924
  0.7173819323245005  0.2799841686316765  0.7119063664634822
  0.8871891553092411  0.9590514464972622  0.1829237322897597
  0.1128400801555425  0.8364107195778507  0.4532211109494612
  0.0847687132623901  0.2802039512024127  0.5316496837551006
  0.3892140152776692  0.6468108310119488  0.5733237402016222
  0.1057998193176033  0.1232297698258372  0.5040266933835678
  0.7166933824492425  0.5989792729750232  0.1352515574319669
  0.9786489525538491  0.8452713372390688  0.5083066434037985
  0.1947335487027982  0.3002832502162141  0.5044439183212003
  0.6063807982428102  0.3215403951317350  0.2723503044390055
  0.4893712016153273  0.9820864125490792  0.4473237522705883
  0.8950528912796221  0.2493736420150038  0.2939603076122003
  0.7893621490493539  0.6992867871667070  0.6251718393426198
  0.7456670421243865  0.0668773446619586  0.3827631968604273
  0.5061492784540077  0.9021372706647603  0.5811458922430317
  0.6076081996215636  0.0870348889301151  0.0288191870250087
  0.0233984403031317  0.9513709210959799  0.4568032633162258
  0.6076070833391916  0.1875236885496643  0.3237223121477315
  0.0263789135135938  0.3430902577077412  0.8606873724278976
  0.8207071667896659  0.1221038306995680  0.6500987730728832
  0.6090595656198772  0.5697292576955688  0.8210770700576558
  0.8992721418391315  0.9126764116824594  0.6365197277339070
  0.5542645581388111  0.1653655117760788  0.0495382059444485
  0.5011486745024940  0.7474651148671253  0.1663199913810200
  0.0920690808221596  0.3003203495015134  0.8090537799987149
  0.7587450068974756  0.1521368779802929  0.5076623547341261
  0.2231190883843760  0.5249517737773701  0.8603597481790566
  0.2540855185326678  0.9750868859791408  0.9140800825674856
  0.4443370217211176  0.9583030210071560  0.0804988021856237
  0.7832938655602243  0.5796676352953946  0.0689921638063214
  0.6928615726606825  0.9408202002017333  0.6553096369842707
  0.9293571386374128  0.5659414290084762  0.6822027448610269
  0.0268471175125632  0.3219600034695429  0.1529241936145842
  0.3462618373452853  1.0041801495689080  0.5029600183669313
  0.8166334062217779  0.8851117360854631  0.9873065791313703
  0.5506443007246598  0.8329326954268359  0.0544172019436844
  0.4008196405004008  0.8833586942690862  0.6288945439057435
  0.6242559788373881  0.8165169244652649  0.5732208655280304
  0.2395510449602248  0.1781754470116538  0.1573875710581110
  0.4573538724914027  0.1440592181709437  0.1836333691556821
  0.6103790737766109  0.5954098341880331  0.1893346324564300
  0.2965705586331326  0.7742041123214618  0.5880856843892697
  0.4099596078070586  0.3361849849279004  0.0953950795886645
  0.0386651776941651  0.3490597507906552  0.4775055378708939
  0.5281066787985808  0.6722207787123762  0.8123749808443448
  0.4474408314006654  0.6094690207913298  0.7789051560556158
  0.9268003670582620  0.8084928604135097  0.0323548744232640
  0.1123653582369476  0.2147910352755887  0.9266307478876931
  0.3327049400923908  0.5640397451872173  0.6756334005554108
  0.7070231869770877  0.9588090583101467  0.5778046539258266
  0.5613831669270396  0.8686415713925391  0.2358194644665751
  0.9259750190899398  0.0741750443372029  0.3960474385423052
  0.4709713405257224  0.8050436466877234  0.8648392701676659
  0.0309400386499191  0.5899785620860785  0.6728362196248399
  0.7427779176838329  0.3725615395266509  0.2563315385692376
  0.6351403962816845  0.0885795560391552  0.1675314855003013
  0.9267175713777156  0.0370235667141321  0.7267241546161454
  0.4970341744869773  0.7669957105066476  0.0450325125317784
  0.5799082356969718  0.7216480197064911  0.2827626428341129
  0.6687830801355683  0.8291944160313673  0.9442147071749517
  0.9692449631721988  0.2183679190973184  0.6252107775143837
  0.7154271350242060  0.1795889475416519  0.0536020995275057
  0.2640160297007283  0.8916837874583595  0.9857272047195403
  0.6995625169034507  0.5938451767046187  0.0725301835587159
  0.2957570024692175  0.8067134696645323  0.7585786058660320
  0.4084741559170950  0.4058449457681922  0.4047875023853470
  0.9574079335110399  0.8594922435525660  0.3624654262839190
  0.6734051021471195  0.5312610519313377  0.1990558603019429
  0.7308091975772010  0.3238286963528595  0.8539492624505773
  0.9305330813724169  0.9127679516506833  0.5429755234470452
  0.9234043188513770  0.1136971436291768  0.0536647480262477
  0.2289248752484397  0.8814463272171958  0.8202082677535453
  0.7179771563758928  0.1689652594896349  0.9421402159734016
  0.5161335800185110  0.5923684896787921  0.2219111401959734
  0.2380148535205765  0.3185522963786036  0.0102522669669746
  0.4505643590222949  0.3057525824213688  0.2525187616169329
  0.6961546395950053  0.7095414541631978  0.7198512580239284
  0.7042879811639047  0.2512980199019454  0.8172259643119039
  0.8461380465355071  0.1459615631590134  0.8613019031887316
  0.2293507657544218  0.5826623130932013  0.7941263399052673
  0.4896652355167570  0.7063145485662130  0.3221328957473548
  0.7447545311682594  1.0070825203619196  0.2111738792284467
  0.5520439239747412  0.3494872418507222  0.0591069761991254
  0.6647929857945299  0.3201346899129093  0.5451246390970291
  0.6231872563505695  0.6121165438661038  0.6206758959390921
  0.3551095887743587  0.5970479589440667  0.2557451633915931
  0.2111491038955092  0.1038951079982794  0.9416426025546287
  0.6865915594477735  0.3919789996306859  0.0484096042151870
  0.5361532799317751  0.4692682143616401  0.9253930578792510
  0.3223263019809218  0.3790431880896503  0.4277710091167695
  0.0215590488760701  0.7219871015995201  0.1809047251560865
  0.4368436937198971  0.5787920307687524  0.2628597254464455
  0.9375760572570678  0.6520693359258748  0.1471379375020236
  0.3125518373578386  0.9012297701261063  0.6297160239056290
  0.5193211087707452  0.2937440322162825  0.4080030912414626
  0.8705824310517292  0.2371336658047098  0.3910806235718850
  0.3645511093763626  0.4563826063825662  1.0041311437162499
  0.1573915344558954  0.6490581768318588  0.6088718486049083
  0.4879736587893129  0.3551031551154804  0.4008517776933139
  0.3846475400536359  0.5491286802069005  0.3314162508531475
  0.8543382108117812  1.0084173434318926  0.8822209677539404
  0.4467235346471347  0.0835506141779514  0.4436547195823308
  0.1995375122180320  0.4105930421079323  0.7759274290307225
  0.6218254015596459  0.9487781788032080  0.2388691725861601
  0.8707089875979482  0.7233240770653836  0.1242880568650385
  0.2538833262205919  0.7310461271650901  0.9707218667400104
  0.5816237440618764  0.4577299015040778  0.8392138654625382
  0.1887515535093121  0.1751116135170769  0.5459741383098202
  0.8490040175374179  0.1765090472994939  0.3201609184231500
  0.2334829815931029  0.2128767935709067  0.4795109547166795
  0.9148339926688731  0.2517654919701632  0.4492286010015171
  0.3481966790801301  0.7681487345043870  0.6985816556186449
  0.6809714158502594  0.8251024270120844  0.6491311318078453
  0.7854873644005389  0.2857441428221417  0.1338285623320772
  0.1567317652152017  0.4204536291897362  0.9100239381892943
  0.1531753318017199  0.6990868123050444  0.0789826083151366
  0.7537884316593604  0.1194765090548937  0.9969150695282588
  0.1882368143408731  0.9235060555642691  0.5521893567780327
  0.0741828003182169  0.2681148423562714  0.4405311845085361
  0.9254535698840490  0.8761413715572920  0.2231209933998381
  0.1533930147530187  0.1976835530871407  0.1271149206039489
  0.8996167675619732  0.1715675454446828  0.1192122137283682
  0.4787804140421779  0.0373204510803789  0.5136587248020363
  0.5464960814096416  0.8116135171153548  0.1640195888342948
  0.4806706755285055  0.5945755622716936  0.1301944427561214
  0.2647445823514897  0.4362043053982658  0.1053893224406785
  0.7442242809185822  0.4941468835246503  0.6531247333237130
  0.6990949089079570  0.7827029538784479  0.1215601531754088
  0.1401219700023943  0.7727755182206706  0.3842114903822639
  0.2133858351717533  0.7283378746703270  0.4557113433194223
  0.6540879898122565  0.9628282640249953  0.5088587015241082
  0.5165917754059475  0.6381645859954703  0.3946282721165116
  0.6336836874066677  0.8998733672004818  0.4486668075239097
  0.0988750752763736  0.9578975174338333  0.6640812956106231
  0.0105669375088691  0.9149646503541937  0.3672155359126719
  0.9127637661246898  0.4615878012240446  0.5824790338887885
  0.0303695467832958  0.2550409678352871  0.2094464459293564
  0.3008763709802417  0.1880092942620006  0.5022849181376704
  0.2113076793954523  0.8040490656261486  0.7448130048663397
  1.0021003763923666  0.2544708798193316  0.7243747115755775
  0.3197213750621938  0.6512283016840011  0.5233689095446322
  0.6477451016303085  0.9673395426567766  0.4189028901980390
  0.7041902506424763  0.0226393751084468  0.4443603158004444
  0.7448692070907146  0.4297199581075847  0.1472353864283621
  0.6786601189384244  0.4535879738844416  0.1028510263213136
  0.1644224065238867  0.3147379128316941  0.2669572951483378
  0.4957223006985692  0.7576590103259653  0.5122194391231346
  0.7793684405902649  0.1115560550959008  0.5748424178560689
  0.5970598599840485  0.8823989978881822  0.6077164207331262
  0.9001015019029213  0.9637248536747740  0.9432601949125574
  0.1217828757100250  0.0660752449493782  0.0879997780073766
  0.8294052304986916  0.9699975893347925  0.8090234121027808
  0.2992763940975045  0.3095050670760041  0.1927546618389182
  0.0916873089210709  0.5626550023785755  0.1250310235822453
  0.9743204605583160  0.9867105522829961  0.6105717594933471
  0.7570270674985701  0.0691753297837202  0.5396481322432821
  0.7673394088853898  0.7307479788842851  0.7042518102572862
  0.7681921447870288  0.5689287919110509  0.6867333668917547
  1.0003114725995330  0.2211618177876353  0.4167659470055271
  0.4918032733660250  0.3159927945040167  0.1117768359299049
  0.8909656269573395  0.5928878642873332  0.6014892809132865
  0.4397734032013887  0.2604036436452891  0.1186099376027608
  0.0835537369598410  0.3549366749004003  0.4021848937610369
  0.6990849235690285  0.0862521993158260  0.0491997647279282
  0.0411856266721952  0.1581612228462693  0.6071472760072820
  0.6237104313986378  0.8498052818215864  0.3565147706388804
  0.9277308723329738  0.3233482919451178  0.2532054150820437
  0.8692478712213307  0.7115891472292398  0.6806995604554150
  0.1415616303759355  0.4859665493565278  0.1422991254433558
  0.3962259739596602  0.2425306666821851  0.3795169259756834
  0.2825745193566908  0.6733021054009293  0.4361600658608266
  0.4545187551772017  0.6612021074666758  0.7095147516105288
  0.6772011455368910  0.9227091966500254  0.8027451730725044
  0.2764829643852359  0.6793355016928092  0.0179338146378898
  0.7798284742058654  0.8190815867924039  0.7230126318172950
  0.7024626038505183  0.0928295395727297  0.4842888881554541
  0.3779866248295247  0.5031860009003177  0.9323267172304950
  0.1837375611111349  0.3784557590332681  0.1227688128378511
  0.3383887523515227  0.5541686734880875  0.5342645995930190
  0.3522495602702156  0.6392352544965388  0.7729936859066668
  0.1204715653106304  0.8800233658095939  0.9035309905176035
  0.4890084689721566  0.5060790864255432  0.2416740333959697
  0.9295711916440632  0.0354501318292484  0.2476988967116407
  0.6508274357733479  0.4904555724114155  0.8135416584804103
  0.3207243015276163  0.4408654706858068  0.9373753904800542
  0.7657927979415267  0.2067786661060699  0.5742739055115387
  0.8439418921564565  0.0657134153087609  0.6961044783834671
  0.4649801484256726  0.0127928226058066  0.0180146181272522
  0.5471170338217368  0.1174076331119384  0.1887595053961773
  0.0728918324658397  0.4376321672767027  0.6655645351995233
  0.0349300536757730  0.6691725542456436  0.6099017745901645
  0.5120065105847356  0.2564784409833310  0.2507595552363445
  0.2309248720220738  0.4819682589670981  0.2735247534718132
  0.3441308497552215  0.7136738545238840  0.8684254026220353
  0.0815323078536143  0.6623852754042169  0.1152564484030337
  0.5659568833260747  0.0247012762863866  0.5403958548037572
  0.4203396387651333  0.3942696554668157  0.3264150657788460
  0.3928293355018887  0.6061954817079259  0.5035750108814949
  0.8761157896963686  0.4057856807662011  0.1479158381379771
  0.4405558329320148  0.7357202279441560  0.5621498069161962
  0.9693980439516167  0.2344406392407094  0.2537462761052910
  0.8091803129699153  0.8941225541955258  0.6512734915185313
  0.0577408201790058  0.0355072583947045  0.6599859922465486
  0.1725438585515570  0.9245146679463085  0.6661548621815873
  0.6727660474998550  0.3392358933607595  0.9736053800913447
  0.9385436574952830  1.0087037462731197  0.1643443213048463
  0.4293090103629239  0.2582269639069295  0.4589167782293401
  0.6486441476078854  0.7875299146152404  0.8097793747992985
  0.1220280933473893  0.7913792519184576  0.6344685128144576
  0.2147079835960091  0.6664592018233750  0.0849151083297803
  0.0978749486727335  0.8051985613737676  0.3114933193663944
  0.7415937629787518  0.9562510724140721  0.1376433149094768
  0.9810109591068560  0.4450099405983228  0.5622914319521818
  0.9067450456471414  0.9177868269284097  0.3942900593485062
  0.5773390680732111  0.3446116823223145  0.9824277855254042
  0.3963335349721219  0.8811591969874598  0.5224263592383306
  0.1772007863333643  0.6324333494050218  0.6844694809701335
  0.6896813846643105  0.3228198432749446  0.6335530869577667
  0.4033166428667080  0.6060792215927192  0.1751138315579358
  0.8796489617099784  0.9239072087127207  0.4874921544032605
  0.5014482985948781  0.4396558609110632  0.2869249071503924
  0.4773317539498383  0.1350299140387578  0.5153018545437464
  0.7727688159694484  1.0084089596206165  0.7047059990651136
  0.6623716359667041  0.8616327882469660  0.2646408751333281
  0.1037024150780897  0.9091500380614094  0.5100446107160850
  0.1482038654380883  0.3851819721773818  0.6236697669481802
  0.5592726316491040  0.9266389639823843  0.9578811132607153
  0.9592409394695108  0.1358671765565876  0.4489689881434760
  0.6177450283642767  0.9077317154886875  0.8637823068143129
  0.2394446786316897  0.5373797221111110  0.9484198171051362
  0.7497154978142837  0.9879066142485324  0.4983189389695964
  0.5006408790874056  0.2308840672267352  0.4654444506260051
  0.0355355809100478  0.1928591785195389  0.1500245237829695
  0.6898067330196662  0.4595324672626669  0.2506110718107383
  0.4696441960177282  0.8675570876259935  0.0297728317549900
  0.1449165328556560  0.2259051484385294  0.4704440125047754
  0.8504523340604379  0.9399350659230188  0.3434259833131351
  0.8371749167120455  0.6622702032359243  0.1664609498881655
  0.2733055180996655  0.4862388846928524  0.6697974537416570
  0.6444584794263399  0.7406740250196505  0.9546160487262848
  0.8534265736033904  0.2024371311368673  0.8129202329483908
  0.0364872529409558  0.3944461073380970  0.3288123556509099
  0.8122694607634707  0.3929640615627190  0.6805415303828837
  0.2900756540723211  0.7311625952455627  0.5068825012733155
  0.1615406704553703  0.4696165963804569  0.2969737890504358
  0.6858186199987139  0.9664751014610647  0.8833755422134527
  0.5756886609786713  0.6594533358036917  0.2263944194210677
  0.4707327050031606  0.5720238181675616  0.8485265987816863
  0.5575844103762005  0.6933580132664670  0.9001729933741842
  0.5864687604713165  0.1126830520422264  0.2544066896551424
  0.5923578006958409  0.4400282504181346  0.2598022689391734
  0.7199737658825571  0.7778055567460124  0.9780048694909020
  0.4073544561407348  0.8335137793987689  0.8516453655737785
  0.5685466873159181  0.5433616957038822  0.9349248205804663
  0.5429219543902508  0.3809229842848883  0.4854469775381834
  0.4995452335952372  0.1186637271958447  0.3855341942396063
  0.9084102884281765  0.1579897608975151  0.3872358916258453
  0.0896293535573885  0.7234845862064182  0.4841776213314781
  0.3271899360418763  0.0847303920210233  0.4666041560164903
  0.0630604526688150  0.3869507526350889  0.7909047779169774
  0.3883037382688425  0.1878793211831642  0.1879926905415791
  0.1904628722717303  0.5957864073935093  0.4724111393889411
  0.0655453213289286  0.3915254435406917  0.5499152444348970
  0.1411006062361820  0.6601489596581631  0.4571550261832176
  0.0415246609349546  0.0967130779844606  0.6786215507108739
  0.1249340276307595  0.1462753411083264  0.9253220353869455
  0.5550609661290694  0.6683559145694884  0.6091016038389981
  0.7052849435343153  0.4392295045010110  0.7807224672664489
  0.9352895063911315  0.0934242914053700  0.3158887813344977
  0.2916493000059594  0.5291091540301900  0.0493366810324980
  0.1954371905550067  0.4434836548284137  0.9933386089589142
  0.8644312542137742  0.3246530169342037  0.1089963637239986
  0.0902071616124851  0.8356886996941725  0.1782922402826474
  0.0315699447936401  0.0840814642338458  0.4732868147432282
  0.0316836033429645  0.0597974473359703  0.8321918846317924
  0.2258598076353271  0.4375922309762434  0.6454677474023451
  0.1163066835082511  0.4477276566594687  0.8482225565555536
  0.7750423806704966  0.2430951923661862  0.9342211764673298
  0.5200575715017194  0.9046513507581194  0.4418644528367738
  0.9352866968992825  0.1030389105493079  0.1990944956821857
  0.8657883316705063  0.3140942005607968  0.5182636525299573
  0.5839265084103883  0.6267001582466405  0.9615969280417647
  0.1240648609251769  0.2837707589808360  0.3894812411519842
  0.2460905407636361  0.2580451508449748  0.2051452166232184
  0.4329793537606524  0.6328434233034552  0.3139402806082738
  0.1522588733937453  0.7347618018493735  0.9874675323042417
  0.8651954496755266  0.8454062972538203  0.6075744626360281
  0.6831650952775176  0.1809210311951292  0.4902478411263659
  0.5363685237235013  0.1771487092883972  0.2608646561948924
  0.2423017037663378  0.0344596129707239  0.6282922193990296
  0.6158875132712832  0.4763147844309258  0.9840879716161403
  0.8470641925002629  0.2371761231918915  0.0933036585693443
  0.0847105984533221  0.3157782239630470  0.6147628140940115
  0.5069106067971690  0.7983382684596744  0.2501944781706659
  0.3117563749753288  0.8493786930929401  0.8258147346621321
  0.8788472514298501  0.7141988965619913  0.5915296845747536
  0.8228797859240912  0.9302487583263997  0.9174591782394297
  0.9374295398194774  0.8471479858551818  0.5939648607182368
  0.6369005809589928  0.7904633353940561  0.3026965699541219
  0.2828741684687686  0.2657511685305551  0.5166310693014302
  1.0047779219501218  0.6837343997039841  0.0914847681942857
  0.3420935205222459  0.2883132866109203  0.4443026331547798
  0.6978716714866228  0.7294454905184828  0.1864547974581665
  0.1941373749691800  0.5128650416030260  0.5111723681903847
  0.5512671175298663  0.8545746216355279  0.8803064276308268
  0.1552354788542616  0.6092364953888948  0.3237254168891308
  0.8680274248482718  0.8185552844969785  0.9911750020420955
  0.9581968396840822  0.9119080461549676  0.9029786525732610
  0.9370376434478032  0.5370815813239926  0.1180558741199127
  0.4338149990206308  0.6862740611825379  0.4985697975981209
  0.3810099461588278  0.7885962649304739  0.7764335632253926
  0.2466670266331006  0.6454404874003860  0.7237618343818275
  0.0609895973526929  0.4640633982493467  0.5224203552031674
  0.4838958208893979  0.8454096043687055  0.6557619116812847
  0.0919485221051262  0.6059206911672335  0.2475505689777353
  0.4414708570518329  0.6937150918457745  0.0415362113361906
  0.8342663332508052  0.6489851733223055  0.0412325568952909
  0.7312266601754148  0.2371068191212172  0.3524502759415652
  0.6550199688724352  0.3885160193438768  0.2839948758949771
  0.3710969637024347  0.0317473306940854  0.9990332540674676
  0.7312352326320732  0.5046043174291298  0.0449424232167963
  0.9382014221229760  0.3000381785456748  0.7393864231114567
  0.1754943731927275  0.0596164920011717  0.4870056950863420
  0.6629132665170291  0.8143986179889972  0.8948792441554233
  0.5247555959051976  0.5607018920023794  0.4400301569185394
  0.3452849599158153  0.6398897107882181  0.3063817751647206
  0.0803381592444881  0.7781780214045981  1.0009863312529677
  0.7814066302172654  0.8689077871876887  0.1669227840185727
  0.1932945626646550  0.3893678298920977  0.3282075974331176
  0.9732244625047201  0.6175310230993480  0.6309003933328869
  0.1037237087959290  0.6671599624530794  0.3012657571680286
  0.7699702176154044  0.9834547096878046  0.4037989461945276
  0.2746614732086172  0.6876595344585762  0.3234896728899949
  0.5182202979128233  0.9560257741732057  0.1229187179048778
  0.2075303209026146  0.3322414196201012  0.9021895724661996
  0.6403341437744740  0.5508870228961943  0.9655368660380550
  0.4463919101223141  0.5183508744248361  0.4694181973618666
  0.6951015470751065  0.4790728938652517  0.5804395642886767
  0.8059071494153778  0.9349990732262797  0.2023557956307293
  1.0018734638282767  0.1239149563158373  0.8438393580606416
  0.7952962682530791  0.2789213332287640  0.8043954280115055
  0.9469169233359741  0.1932007934109336  0.1888178459945093
  0.0593737226327504  0.2424465735476241  0.8653751894572945
  0.6009809838803063  0.9614009927095305  0.1326458603155174
  0.2510065679155722  0.3848674137336191  0.9408857420948914
  0.6479737289961157  0.3040854460787050  0.0590167918313302
  0.1936291369838782  0.8569684407229436  0.6017065305629480
  0.9285379133955916  0.0833859155815847  0.1328896314974804
  0.3549178735400025  0.6460688807852447  0.9351607330595606
  0.9156521786998422  0.2056413118168610  0.9437708440459656
  0.7905386162980323  0.0914604564547231  0.7576502903233654
  0.9123017351977764  0.7771285022566145  0.7234981697982714
  0.3651625316632987  0.3357080276783137  0.2460191129426317
  0.8080636582821316  0.9069310031778456  0.7470607853964142
  0.8380124350755751  0.3233381485373376  0.2810474228281624
  0.4400791767010394  0.7547221799168858  0.7200018859122245
  0.1593996228034583  0.1020710314791272  0.0866038080557491
  0.7414924062582948  0.9214592704149921  0.9315202643318644
  0.2325158248386229  0.5329957241660299  0.4280682994983911
  0.5626839720230593  0.3753760032472223  0.3015107659780358
  0.7530062207057071  0.0553322304813973  0.6238863161673414
  0.2913267961345929  0.0800004987294658  0.9812161726455692
  0.2657327251290338  0.7143612014915124  0.1156398240634566
  0.5501430475670293  0.4982532202565901  0.7733835278675352
  0.1883126695172137  0.5576736116157173  0.2659140924035820
  0.8516546457919535  1.0031170428987481  0.6217000727593981
  0.7581752725580576  0.7258319167237894  0.0423161953064682
  0.7400537781018186  0.8723844960832048  0.7754592383941908
  0.4188101521410416  0.9135964729233751  0.9206353011437949
  0.2953057708880201  0.7422389964200130  0.0382996130392500
  0.7690941281806537  0.4998989032457993  0.1045848087339546
  0.9514093437039556  0.8622529846540157  0.7393243939859196
  0.5903966476783613  0.4747138486826646  0.7036910341091874
  0.1289303158319058  0.2877794275776501  0.8874272052667960
  0.3332866543210293  0.9486015470807534  0.9221506030860503
  0.4294646726016702  0.5422229235055693  0.5308267782508888
  0.4770502153037949  0.7545603593723393  0.7901099027129860
  0.5911614671979367  0.6306845650390347  0.7533165350444599
  0.4301799494774323  0.4430882771867656  0.0587620882423952
  0.9214076504859742  0.7865597700430006  0.6085867158006556
  0.7841525670745493  0.7320058214843186  0.1504104742678349
  0.0808547396469096  0.8137238705741973  0.0917461680936082
  0.3821924629971910  0.0155304908374161  0.5742934349190204
  0.7316256494532787  0.8947615500573692  0.8465165911149352
  0.5601372491398953  0.8246818045618710  0.6562589383553179
  0.2269942041213743  0.5134832292914318  0.1163370688085271
  0.6651268465880943  0.9200952592636056  0.3596591780213982
  0.5541112087076238  0.7213963331897866  0.9718650162603193
  0.3076899594514003  0.7140003789561412  0.7589405860864956
  0.6342988136648541  0.1026680344149200  0.3231885440545554
  0.5529804275286800  0.4338183676717104  0.5571349804417095
  0.4694721207026120  0.4049325446856988  0.1245546094485594
  0.9851318374069008  0.1609950298224743  0.6836440043110408
  0.5347089330969367  0.8469441711356178  0.3896641605392135
  0.2724459037669629  0.2923026660276706  0.3735484240751250
  0.7178673239521527  0.9805932376411555  0.3553103816518707
  0.2274701093916406  0.7836192406584731  0.5284302606787820
  0.7318276957737608  0.2598882321547253  0.0752087016384597
  0.8447845086040562  0.2452085731325416  0.4755282070138644
  0.1200705632626795  0.8595348695380907  0.0323585035976462
  0.3182914145888130  0.9358665319658266  0.5225521442421798
  0.2921520901971285  0.1538120629937497  0.4479540181153928
  0.5941056454039997  0.7713631062410218  0.3772768161860519
  0.6110701381552193  0.8650815392041725  0.7845173062659087
  0.8801208560959088  0.6665991084974668  0.0881699458304486
  0.5632621366973285  0.8831966425504693  0.1290701416747332
  0.3820795911544289  0.1567839978818491  0.5189204948648701
  0.7338500774477789  0.8718406019324454  0.6876021961236500
  0.1392590332608372  0.5597545123269559  0.6435767968960081
  0.3165797758173476  0.5073219214651364  0.7356201544742581
  0.1958776316547090  0.0289682523988026  0.8791871019583845
  0.7325291140207270  0.0231313210069384  0.2853962530905547
  0.9805477403740221  0.8068218055003570  0.2181309258365571
  0.5375817524773383  0.8256159987500239  0.8032646013115793
  0.1608477273320008  0.3711400943754449  0.4128155787076156
  0.3799380429009147  0.6181074290365837  0.3896161772051525
  0.5249691267065496  0.4974251131797324  0.3937500950470765
  0.9971260295840549  0.2604857806057354  0.6224358250133484
  0.8289790273753225  0.4245425946780139  0.1014709130027307
  0.2551159795236488  0.8773617270253600  0.6850770374400076
  0.0154112754703794  0.4681173395405497  0.2667160535754987
  0.4708103707000409  0.2524014471937920  0.3134935326742700
  0.2763572957855981  0.7469855386389661  0.8205120552104073
  0.8136741962470065  0.3837741672692020  0.5823732005439718
  0.7207142829911208  0.2759740355628755  1.0068662637594958
  0.7712120326823716  0.8350216256185388  0.6160187870132463
  0.5532775349135181  0.6411164307980159  0.3163341654227739
  0.1699627230811774  0.2774351347653335  0.9661148416371612
  0.9264465838955412  0.2584176165177732  0.1171418245433677
  0.0996131176786179  0.8462401150883810  0.3708822597969106
  0.1485502270632832  0.8020523455651490  0.9485895292027013
  0.6565393674323377  0.2639198395923291  0.4760128489638160
  0.7795959870757450  0.1978466314048386  0.1130281857154083
  0.4092535509028229  0.2988762129275289  0.3175562092890085
  0.8133750456514026  0.2525194620186709  0.3210164996111927
  0.3720027489396900  0.5518490554551677  0.7533380065925931
  0.0404331804584052  0.8502279512541135  0.7212602489106443
  0.7936500477484255  1.0001097218237975  0.3355263993968682
  0.2672346329645341  0.4546777443122412  1.0045850837320545
  0.8606878152968279  0.8757188213598495  0.1530393154137504
  0.1862027091176152  0.8782607033409634  0.9687474831827991
  0.6352596823450148  0.8794132908694031  0.6831167126582208
  0.3126975238279333  0.6084562926065633  1.0002562297054831
  0.9609649610770516  0.0589059159078487  0.7971928881492587
  0.4796657122691555  0.6693341646368538  0.1867154183085943
  0.5830313831800440  0.5190429217565581  0.2226906907371468
  0.8138718208716228  0.6588852271941421  0.7135726406324789
  0.9156557246443107  0.8136517247728033  0.1606143686399673
  0.2105640160276422  0.7157548941616082  0.3748129621684935
  0.7657240493453330  0.4523637212181140  0.2365137369704207
  0.2889677711795921  0.2139123328851637  0.0215699479002447
  0.7914943238745250  0.9947330049126957  0.5636577958107829
  0.8216292617523353  1.0018068256699844  0.4767076607739087
  0.4599061914083322  1.0035937958768573  0.1635931728299768
  0.6677278111057871  0.3122418830572330  0.7738470474889039
  0.3694221362646413  0.9759156347432590  0.0666675114938384
  0.9864512884526470  0.8023131293972248  0.5936071246263577
  0.6932025617052849  0.7976618201846024  0.7428354017508009
  0.7442369404082841  0.5093591026223867  0.1822973121489978
  0.6278701995405125  0.0416487296907746  0.0968929856355224
  0.9232695526904737  0.4133094614803448  0.2137309723586776
  1.0005649923626136  0.3358366030413604  0.2325942098615363
  0.0990306215656502  0.6269862505574401  0.6448162171032155
  0.3202323100520783  0.5957868675891789  0.4573068291115075
  0.7366624340560625  0.1390317691650203  0.4410826683929452
  0.4761203344880703  0.6325450120187340  0.2690206700256262
  0.3160146159087674  0.7187752795240433  0.9451195966971984
  0.4340365395919011  0.3920571004291720  0.2468122652557748
  0.1960797100753983  0.2837980703333253  0.4287392078514797
  0.6438423780350535  0.7667014757423436  0.6933288523985942
  0.3429713527907749  0.6027737850543711  0.1218099787611742
  0.6391302989498854  0.9881060837620992  0.3128187878207383
  0.9473629827317598  0.1676005651881652  0.5503196793642875
  0.5577689835954066  0.0957037297441193  0.1092321430334703
  0.5834307849751063  0.3055528472861206  0.3488137785797933
  0.1235402823716210  0.0492252455645942  0.5472368763961356
  0.2129345239348315  0.7396978719101512  0.0428330632064401
  0.4801840295100150  0.0456369414351006  0.1016038695618722
  0.4223476038112595  0.4812413129984943  0.1388238568982141
  0.3023726689920645  0.5401408162139756  0.3973400497262848
  0.6256257093277726  0.3667890477377949  0.4859936191309366
  0.5235584115019186  0.6159975369504177  0.8842359677752514
  0.9679646784859915  0.8472740566636379  0.0941922641093823
  0.3676583502596888  0.6333318009512231  0.0688887000242233
  0.0312442288700869  0.2358063962145626  0.3213458346884671
  0.8779181079864050  0.8714161468808822  0.7026206171783790
  0.6139433313820011  0.7849903270309219  0.1646952546272739
  0.1463530682361745  0.7522960513764894  0.5428061322158640
  0.9223861696356892  0.2184014972185002  0.7047555870742188
  0.8923127966066797  0.2022324191137578  0.6184622636470927
  0.7813179838505711  0.2427319300997997  0.2151480451648692
  0.7797981209045691  0.1344446805653353  0.0875448819625915
  0.5264066862858837  0.3686637380406821  0.2399519734445929
  0.5418254634779543  0.5391291027836457  0.8564866502643959
  0.6977492981733417  0.2587844062481396  0.9327577929682861
  0.6271257420550003  0.7902470771323153  0.0218142762568219
  0.9676218436966529  0.1031727133782656  1.0072113037829740
  0.5977650594841036  0.2388294108021433  0.2501431918184641
  0.2218466439729909  0.5040784008795011  0.7517530938796081
  0.2708918645118994  0.5535722889524259  0.2378905112620321
  0.9694207180891709  0.1821604360621809  0.7615035632237278
  0.5826855378813905  0.7961641261182033  0.9986046214744918
  0.3001824483485787  0.6262128755160458  0.0808815266820242
  0.5381157780687775  0.7554610619572757  0.8484080981586153
  0.0599740162764453  0.8931996676352798  0.5952534393952164
  0.4197346415279556  0.3414556289883203  0.1711359130902594
  0.8616385924598126  0.0516063494630593  0.5314835528180460
  0.9367067910873316  0.5234831816576715  0.6096511251006841
  0.1888373323403053  0.4898491911273835  0.5900107810075637
  0.1959895627044305  0.3329987682780258  0.1842429143784557
  0.8844584565928337  0.7335611307554205  0.0765553014500882
  0.3142449646420000  0.5762194343529263  0.3113605850116484
  0.7185001023377336  0.2248950346028164  0.4235315390233999
  0.1079166490810047  0.3554263639674175  0.8679798305119635
  0.9048577318260485  0.9421068796312153  0.0970801633194564
  0.8460394286268785  0.5382099176464552  0.6460576830058528
  0.8250406335397281  0.9613796198340486  0.9962058714972736
  0.4593410180323640  0.8197837966416757  0.5783327284529622
  0.5858835167411608  0.5637922015610272  0.0273251382384250
  0.6297373642184062  0.8373708025268318  0.1055150521637129
  0.4111234920152498  0.7870878790600769  0.6375893670455763
  0.8906458544117806  0.1249647982367748  0.9258783365850816
  0.6234182192234814  0.3793366805369778  0.9112815084193919
  0.4642288282949680  0.2408205888333600  0.1840824109467182
  0.9518892095996007  0.9035857014782485  0.1545131541375699
  0.9874922968812934  0.4028481092846369  0.1792313435519509
  0.2002628999087952  0.6535544330739453  0.3589375366627221
  0.2585066090948774  0.4866742485809432  0.8046936647222954
  0.8225144738106519  0.2520142987862780  0.5684924075596299
  0.7038647589981655  0.1459669371931064  0.3608434896022182
  0.3064953494949344  0.5930356129205061  0.7625242890649354
  0.4517460228585413  0.5729105643089567  0.3809549029872544
  0.4314223125547644  0.9681699155024585  0.5026924910080995
  0.9485623337455519  0.6142756941719957  0.1124818196183326
  0.6392443817177773  0.9427708865108830  0.9514546414091745
  0.3728543537607838  0.4086062734234492  0.1173662703617563
  0.9857625043720704  0.9491712771556831  0.8125585421144356
  0.5151785717954706  0.8055048323430414  0.9469947963759351
  0.8872625813046829  0.6257960709992550  0.6682440765443212
  0.8042194677935171  0.3138727268252430  0.2409119835407765
  0.9551640560671744  0.7637709480405106  0.1059681464528687
  0.9692652265164826  0.4884230722476107  0.2026827384960146
  0.5937183668784846  0.2120246395590774  0.1190916022347775
  0.3824756840309254  0.2662945062089651  0.1880825600627661
  0.4408357870931201  0.1707372412673311  0.4478140411406537
  0.6042467744455322  0.6880668118929832  0.6980684743986755
  0.6590611209662749  0.5325777523836512  0.6746520258619692
  0.1817319606163610  0.8393164175241483  0.6775339552546502
  0.3693537053105463  0.9415844693514144  0.5815163209003658
  0.8828778854763524  0.1434370766779365  0.5091284919261239
  0.6359643123331200  0.5055150642694470  0.6215509318934105
  0.6882513449536131  0.5264292325185488  0.1256841078540883
  0.4903078384434598  0.5667665222822971  0.5327340830369168
  0.9169376899665228  0.1487130215222916  0.8104110985351013
  0.5062305798300629  0.9464805980608868  0.5307319479663533
  0.9708077307049364  0.1245057776535980  0.9203360520852375
  0.9344496238711323  0.0267524974754953  0.5827057137066070
  0.4009552816401493  0.0877223743520270  0.5110638841519474
  0.2712018121539319  0.7813156347279592  0.8952593947529039
  0.3769665133315130  0.7228342942385827  0.6247609649079983
  0.1983314006187077  0.4021118329223278  0.2392151373407397
  0.2410158327122588  0.3720932639462063  0.4094986175476791
  0.0964243724313413  0.1898330150475251  0.5435002401037302
  0.8246077568028161  0.2476019601495042  0.2418480593988945
  0.1765720977447814  0.5638873312108827  0.1690532506749327
  0.6490294386348018  0.2226765242741115  0.0605125609205544
  0.0581788547944706  0.0868484641949240  0.9109883530731863
  0.6866778688697387  0.3915058127380029  0.1930876346041098
  0.0989169692741224  0.7142219634732855  0.2316457858640107
  0.8575074610268913  0.9618728785278139  0.6975556099871860
  0.4902662746208899  0.3506435891401075  0.3252400577253869
  0.6377449912438495  0.7296716232543565  0.1076815617329974
  0.6196142149925384  0.0353013165116626  0.4636448241342354
  0.4258621070676187  0.8202079741770201  0.9344807548636226
  0.8661648446745128  0.3164084709316667  0.5973054788566160
  0.5261039934054501  0.5302400158278704  0.1584199799469327
  0.3993350611744476  0.5795873056566250  0.9009092752481622
  0.2271101677359616  0.8156731344093348  0.8240183483877545
  0.2481287226159847  0.3731915298190236  0.1771029763721592
  0.2598192817159930  0.3042218967370668  0.4519834421099261
  0.3448638172347027  0.8671875664390389  0.8938618961107843
  0.5338749617376086  0.1991395942190083  0.1798250937758676
  0.5569995452332485  0.6285841502471823  0.1582521263725522
  0.8559791501662091  0.9824294729263210  0.1092922956224370
  0.3726260005476781  0.6968216903219772  0.6940374292774750
  0.8143132015598096  0.1613131737466087  0.0670310175333713
  0.7974258562073535  0.0884265030543525  0.1926494113058148
  0.2045122150375056  0.2535134264719656  0.1329648073099114
  0.2642354212519579  0.4582410502171073  0.2098064690158456
  0.7908657967291409  0.1117354255417269  0.5078100665495561
  0.6723596722587074  0.9639913477935051  0.0841342830062847
  0.7494101450266203  0.2525360304782714  0.4983395480082394
  0.4979466494714604  0.6406808489626856  0.4835728613466487
  0.4538257132759517  0.5059395335559773  0.1081131176660263
  0.2342323005541320  0.3979713952402764  0.0408627294131765
  0.5482527184694862  0.5918938306113141  0.6492273150347382
  0.0148408653279199  0.2240044943268319  0.5639643286793448
  0.8473611633025173  0.8332632946905119  0.6916590840270185
  0.3131538300372472  0.4199372239014251  0.1416862849800469
  0.7902586511777269  0.6527320057965073  0.1066693349179599
  0.1258999196233315  0.3221534609827779  0.4744581790953965
  0.0667689114309475  0.1030753887615933  0.5855930956662204
  0.7567750908958003  0.1670134122618115  0.1933366522371675
  0.7920082321777547  0.1731588478066514  0.4604676565837520
  0.8169707885552465  0.0769089949719197  0.5382448032913051
  0.3464121544843754  0.4330891548887351  0.0838997843344837
  0.4716393625803025  0.7010739631622988  0.8613197050300846
  0.9839513906114130  0.1995355131632234  0.1040242893745314
  0.5876040590358077  0.7788848014272396  0.2251433810713934
  1.0039152361437402  0.2744830309021337  0.4851583445017888
  0.1396271380847250  0.4478379422343214  0.6474554560637451
  0.4790455091003076  0.4377050534138250  0.3677052273555098
  0.9731552367153160  0.8175049197998112  0.6380767623415140
  0.3138691123170566  0.3013296603797639  0.0579178745491776
  0.3167230781065296  0.5125886615416361  0.9679408586636664
  0.2330463380575794  0.6177302496891813  0.3138238483257342
  0.7247111170043226  0.8721806737837268  0.9973285012829692
  0.7028212603912337  0.2761108480193258  0.1596885299589301
  0.1911113095873349  0.6928352076139040  0.6521264576856253
  0.5086106543361719  0.7441259087100270  0.6046054016310168
  0.7997742324910830  0.0151938435773509  0.9409708690204492
  0.0152186145759049  0.3180400301910498  0.5551086590058455
  0.5308367200802669  0.5012185525351536  1.0018582017347766
  0.6432068115605012  0.5035325928699752  0.1294593618684474
  0.3403935975560174  0.7898436094183171  0.8692579247884634
  0.8016839328044018  0.1367333824290053  0.3904077147755666
  0.4087300225918652  0.6950240246356330  0.7740081047596223
  0.1151292145669103  0.9676748732259630  0.8969986217231237
  0.6129916802749110  0.8720686016467681  0.1916102125157200
  0.3373572340600218  0.3909690248659579  0.1758584731212397
  0.0519829331026290  0.2022063842720775  0.1035755465586127
  0.1023873629749128  0.4075321137860591  0.6922526258557342
  0.3224411227071119  0.9563185246984770  1.0008222712777777
  0.8794512005640688  0.5870640711145212  0.1332436677747297
  0.6315692348420011  0.1354031254269249  0.0939311184369223
  0.1751265988207227  0.3653844282119751  0.9528747402695696
  0.7831636581666548  0.2589195292506443  0.7121757472927793
  0.5381057249950922  0.3826013743279613  0.1478442682590684
  0.1040694976443001  0.8677125059183286  0.6569926975036865
  0.9014683371519923  0.0151426305834611  0.4585888489434222
  0.4086262577726560  0.6558617064174752  0.8504656180568964
  0.9563750250598954  0.2754500885945358  0.1977374851924900
  0.5950067330614291  0.6168907203190828  0.1265809791334440
  0.9601145006554577  0.9553722869753614  0.2320631482174567
  0.2381379732269956  0.7075479780817910  0.5839151436265102
  0.2350416947888258  0.5926415924912473  0.1294743733859565
  0.5607390407284925  0.7190840406024190  0.1696596713345805
  0.1712321951193248  0.4871160583267717  0.2249405782343421
  0.4822506268130650  0.2467033291352472  0.3933183040035668
  0.7633582795818992  0.1879949732596990  0.2955903901582994
  0.8417234571304238  0.1088603561224198  0.1087815353865868
  0.8653086854652386  0.8199359983262402  0.0906205884068407
  0.8460873977345842  0.0128208536148699  0.7616447540662212
  0.8766348516627248  0.0926882658718550  0.7845124731257104
  0.8537957081352761  0.0878940297832631  0.3445775496883857
  0.6680024593799987  0.8867256122289178  0.5985146135330998
  0.6550480353010074  0.4652055028693101  0.7170463748924099
  0.0350060962450778  0.2981817854715596  0.3784094434002349
  0.4590079013847858  0.4089699498130397  0.2065815215099989
  0.7990238316571473  0.1297776453438988  0.7954091235611325
  0.4835684604715620  0.7392936624525028  0.9341657474578716
  0.6598759127108549  0.9942348176404291  0.1764268300852328
  0.1246325167467139  0.7299044146875574  0.2714421999993307
  0.9834067101329547  0.9128211588498620  0.6267310106820890
  0.6158028874116351  0.1735217364611787  0.2010898675215645
  0.9158396019176126  0.1240843756076162  0.7271067275350552
  0.7867922719769866  0.8184528134317215  0.0398040280507228
  0.0593361698954166  0.8487893741422048  0.9613465676264121
  0.3344407508414486  0.5689961039899053  0.1739440033116481
  0.3559848893539160  0.2309321265387586  0.1013407925696985
  0.5212008663765685  0.4899931167150419  0.4895064029160990
  0.8944315445510655  0.2051124561806799  0.4559948673493081
  0.0106219983525021  0.3158571523201699  0.7838016698968152
  0.5437534334278887  0.4253082439267884  0.4323167160576069
  0.5367342295403681  0.0545493960996280  0.4539767053036981
  0.7727620006141596  0.1731057014084659  0.8839961774302459
  0.9309106871137891  0.9897455624760043  0.6574182881644249
  0.4367377755968963  0.5417862322162668  0.1867138528096324
  0.6581448050355562  0.0956090779235736  0.4178120045365387
  0.8953877273029729  1.0090066437999157  0.0863379766719165
  0.0112527727915107  0.3230281067479973  0.6812128370629078
  0.5460469254863554  0.7875566447385471  0.5794075462084354
  0.8655525644462984  0.0437399993520750  0.1835751752528423
  0.3261420542176235  0.4883387671862652  0.2705619821748992
  0.1169997817117682  0.8923086493309047  0.7353385554953529
  0.5537341412823897  0.7381634540970474  0.5612664238916539
  0.3462808994661739  0.8138846050343358  0.6349029708776547
  0.0250202055657964  0.9068078879921443  0.5305436465786356
  0.5424263179383008  0.5866178186726109  0.0120837988357559
  0.1401660148914841  0.4322944514238134  0.1793633573589867
  0.9273054081092212  0.0423117248713254  0.9398292405224196
  0.5966322235158448  0.5914320152469617  0.6905414283297332
  0.8646650253802947  0.3445045626985771  0.2071145885349343
  0.6363128960386364  0.3696546492858142  0.1227987438532015
  0.1256072984241361  0.6371966982744006  0.1585317852391937
  0.1809612807875123  0.7350315647766353  0.1048310538846304
  0.6800740566251834  0.8805192518373196  0.9030214961197067
  0.9808706314687187  0.9129030874816930  0.0561816841830577
  0.0183544928105519  0.8029446161415009  0.1457721927238550
  0.2425256894479450  0.1242585006285911  0.5037432490116073
  0.9708969178547406  0.9107230371881259  0.4561109051263947
  0.0944924339837696  0.4972309103483607  0.6021878117343438
  0.7522291054941798  0.4197986760659059  0.6292589677867042
  0.2999202891139007  0.4825162335043141  0.8802209236635564
  0.0501982531633405  0.1969981209760165  0.4926313613786569
  0.7766266967322798  0.9586974904745487  0.9869600001254434
  0.5519400286687813  0.8377740480274692  0.4932615933866185
  0.5223187271286794  0.5183838540750142  0.5664953447063662
  0.6427532049353758  0.2455953223659040  0.9999906339327366
  0.3039642808601439  0.4854967173700954  0.3345390166632355
  0.0252276086441783  0.8484319846531606  0.4318732286449045
  0.1877504951371129  0.6530500202263100  0.2395391821981601
  0.0482155863001637  0.2621183381884651  0.7905332814450403
  0.1942895565145089  0.5166728172995331  0.6799186074838002
  0.2660389973863795  0.8852891465063191  0.9046209498502501
  0.2198649504334234  0.4591457648567835  0.9113410120832613
  0.9695321658029988  0.1233310425461938  0.0680181058463888
  0.7040813139780047  0.8064041413680908  0.0540299865831022
  0.0568609030701849  0.8246471494603753  0.5250641081540597
  0.2000981819326820  0.6581740604082935  0.5353527556066949
  0.8614881224571762  0.0966878789863750  0.4458102450423966
  0.7975801299472197  0.2123126252604596  0.6354454956257563
  0.1891892645096236  0.8434758558911949  0.8801028008877902
  0.8368347850834702  0.1953606685060814  0.1702139798429573
  0.7317006490756058  0.2707383607994038  0.2687224178981131
  0.5086625285928728  0.2493793979579040  0.1121461613101735
  0.6242503377208778  0.6544971332245382  0.1417798726137457
  0.2579071281916377  0.3635966729273060  0.3349240438380034
  0.5925261063872866  0.4447402810410747  0.5116931389029397
  0.2731622483457461  0.0148278004939390  0.4976801399711038
  0.1168791688188859  0.3469606376646227  0.1768659782235310
  0.6554100887007852  0.2449986296559164  0.2929179576360017
  0.9118698566333439  0.2403319442844498  0.5362518078476634
  0.1461204840481645  0.4347367755249993  0.5468592888880713
  0.3922675174407711  0.5319110243332094  0.4204585241813099
  0.5309410641625357  0.2974114549604125  0.2910065044248413
  0.3519124868585297  0.3254386568740543  0.3805243974025329
  0.6481902546122196  0.5119106045475134  0.0591400865954619
  0.5827938451571892  0.3035527977119753  0.1232148280681058
  0.1562127020027811  0.3597692683598810  0.0342386430170111
  0.8627647170877404  0.0911028589581944  0.2581412431106122
  0.4717358765416870  0.6214775872048134  0.6064391369289622
  0.2968821560912275  0.6214589941599011  0.3781895100454900
  0.9105392907744256  0.0795977122008167  0.6455103231096755
  0.2997833409099306  0.0259514138872142  0.0635384495593543
  0.9029018383412969  1.0043774364134308  0.8156865975588984
  0.3647300974476152  0.5844422132259945  0.0661206215888867
  0.0147522115578627  0.3791849850179401  0.7170239583653816
  0.8570712883974245  0.0146390381887735  0.3954313606696781
  0.4526842751692289  0.9329184286033334  0.5686401678418618
  0.5507806365213389  0.8787704462991003  0.9761348346670250
  0.3462719534056128  0.3078138043428980  0.1351127927703893
  0.2499117446235843  0.4203967286440921  0.3137545311466392
  0.3432303387766962  0.0979100254779612  0.0518010962423772
  0.2400725293835899  0.9277414249000772  0.6176433470513641
  0.8292927156092846  0.9391678574414155  0.1120310069177787
  0.9513987711708971  0.1485199807688183  1.0066000048018575
  0.1756494384607457  0.3773929602450099  0.8241080456938824
  0.0214845267064997  0.9790112918380260  0.5927531945278492
  0.8825931306250467  0.9947148957794612  0.5398523098011886
  0.5576636697505210  0.5295007701702201  0.6500566040458932
  0.4778126530735349  0.8847506275911099  0.5192904243321862
  0.7218480007495228  0.8751371460714737  0.0951309315768509
  0.0159029818419114  0.1353512933089788  0.5278542089712096
  0.1498870164435403  0.7784620541863980  0.0570180382928021
  0.5477749950033468  0.2434002094998212  0.3285942408127489
  0.1366206000526780  0.9197693903841222  0.5885689672427298
  0.1504299619439184  0.9164798079134792  0.8311933716336685
  0.0085026205281446  0.7972622945533120  0.3666486789275610
  0.4874967952206248  0.5384999213452657  0.9421796860289836
  0.6153489428160550  0.0365307513933448  0.2417262721883580
  0.3082909869188633  0.5728339583195627  0.9133487921128309
  0.2724288538984840  0.4874435387486636  0.4926556570261563
  0.7832950305082436  0.5915809284889432  0.6207136319653571
  0.5551631188552452  0.0124450196386432  0.0607816006034374
  0.2080636254772939  0.6035306462188115  0.3711926516725169
  0.6945056624450276  0.0662294003735032  0.2254058301357329
  0.0406246167882427  0.2493352488324234  0.9590660401856141
  0.0095866816813662  0.2939059431229211  0.9262727856981787
  0.8296431839532853  0.7765021675376512  0.6410604651532631
  0.5428126102943237  0.4463089037168197  0.2045522384209427
  0.5954076806324110  0.2407016191204717  0.4054783910055281
  0.3498327743584074  0.7962061556135085  0.9464001148090221
  0.1535575966673943  0.0545458532095895  0.6056330927922622
  0.7898860568699364  0.0879562515376294  0.9076232329409446
  0.9533630093561337  0.6873486035970858  0.6684896784544163
  0.7803121006913168  0.3168718331556790  0.5539338390757298
  0.8255794419641826  0.1665935286138232  0.7204937622923000
  0.7823715438276623  0.3122018897992934  0.6443442556709431
  0.1551857156877170  0.7544305359400474  0.7053123479789611
  0.6621306082304556  0.6252662866768680  0.9997756575591709
  0.7190829664403888  0.3518778590976499  0.1160211908409632
  0.0729789062095323  0.3080774784684841  0.3056512968780772
  0.1491615712107234  0.3667529732456053  0.7664615845647107
  0.8546976144079916  0.4609663114219981  0.2005464472748673
  0.4845932840566945  0.8902939632150699  0.9184541075255820
  0.8261538701509805  0.7057776935527970  0.0830721534726161
  0.8705427350222086  0.8617765550167010  0.0619397286355094
  0.4784671452147612  0.5054898651617284  0.3344211326356699
  0.1691654099954694  0.8456230676439191  0.8020188778309189
  0.6780116197236670  0.3162689668639347  0.2312366672968980
  0.8092137922920679  0.0544217092629513  0.8321689639021944
  0.9193077976702121  0.4835813190922226  0.6587643927285827
  0.3162342770598198  0.6454911942526005  0.6902947644392539
  0.7889339782715001  0.5808261291937609  0.1643130397594067
  0.5737090449430127  0.0678665507234318  0.3953203704969038
  0.9331487674331927  0.2929589059701599  0.6458328878676906
  0.7025121687232921  0.7141518026359442  0.6407197221441933
  0.5294944465646320  0.9207089267686792  0.0568373456145615
  0.4378405428049105  0.6173739101330373  0.4330930171413545
  0.2925717199437308  0.3895716421312702  0.2517013308715288
  0.5904707110067607  0.7839654045676006  0.9099355628033257
  0.2574842762533108  0.5828071954354007  0.5121384308963368
  0.6323535735044616  0.4479811164553365  0.9061344197824025
  0.2590626056473272  0.5409672773224343  0.6129325241786708
  0.1572994840098071  0.6812772969544324  0.3667355826126572
  0.5336064735299505  0.5771196437996899  0.7830060737967824
  0.9418381088845371  0.0730039269874670  0.4983551744308230
  0.9532708582554540  0.2392761593426454  0.3579037219443180
  0.2376273571266452  0.5357410497969846  0.3307566356502591
  0.9155676040864037  0.0827607395802223  0.8598298399666702
  0.0212136596727453  0.5364325604456851  0.1485993528049893
  0.5546696844716860  0.7159956145721845  0.3673636807266140
  0.3741081669827077  0.7913349457797172  0.5795657926156133
  0.2120111504192140  0.5902035626410939  0.5834256081277820
  0.5914168010635191  0.8365128991943652  0.4398773151168455
  0.2232305221148519  0.8473509466033513  0.7665411405064131
  0.8651711387345916  0.1389673360938739  0.1752889607239294
  0.4464827074237759  0.3218371213244138  0.3909861951772050
  0.4073108402049106  0.7417200306308633  0.8383711261448623
  0.9943417847538354  0.2710461687414339  0.8337064726576344
  0.1091314642972444  0.7554279807286003  0.4203467979295905
  0.7782304320910950  0.9803827478953738  0.8733221137415709
  0.8259761424978398  1.0076885107703897  0.2503131085479414
  0.6439660888123492  0.1718144322936603  0.4188321073266008
  0.2035744930440793  0.4390691276222736  0.1585360491718648
  0.8764732493062237  0.2671577253593582  0.1822136372877189
  0.7742312245053193  0.2140601654546964  0.8524348918444394
  0.9958403386965924  0.7627583793952172  0.0752115640365211
  0.6564028021218169  0.2821275592328212  0.1418116144617218
  0.9423719041886978  1.0061317503216263  0.0639090173603607
  0.5583424437842508  0.7551299843723503  0.4580574865164397
  0.1042251369093997  0.2629573914082683  0.1519703750686842
  0.1965685108117182  0.6951184168181567  0.3140260386303185
  0.4956763288937844  0.6734788829806369  0.5488678500685780
  0.6790781350380124  0.3905034435366600  0.8375104620177288
  0.1349344268830111  0.4139850262112053  0.7787143633402945
  0.7015034355926302  0.5781963771774239  0.6452435493032955
  0.7436541113522449  0.7683478047775483  0.6593941393157883
  0.9400981748389506  0.9401917360705081  0.3165521057974791
  0.7132267324707130  0.3731416960066554  0.5772312909399738
  0.3972570785433773  0.1244614451720837  0.1193449342442866
  0.6030957253562195  0.7918345104867870  0.7374458172422997
  0.1088680256631342  0.7043910460954126  0.6483723644124344
  0.1273846322259643  0.0594483083174595  0.9298348016134900
  0.2685564103362949  0.8145585191473559  0.6837081822058276
  0.0128255467563583  0.4971536358094353  0.6290426028722319
  0.6699881389321980  0.1078239766337795  0.2421012011419704
  0.6758798423485664  0.2083365778215815  0.9959162684827786
  0.5178592111776950  0.4156569456101792  0.0468848366324114
  0.7356924605946065  0.2934489570499584  0.5692819761287137
  0.3660812561396802  0.1980597935925121  0.4479595969153603
  0.1271516605523126  0.3915627962874701  0.4782000679943091
  0.5805307790494529  0.5512026150386536  0.7174621896320548
  0.7672103808007262  0.2071098772995809  0.7733493849136106
  0.6225941913713331  0.3235012917403188  0.4192484850315281
  0.8801042629434394  0.3955338706553435  0.6312380615792353
  0.1486223958712275  0.7253932194530307  0.5868792116876754
  0.6138387984156096  0.9026280314107176  0.0551132875746863
  0.6878251085691452  0.3666239921634637  0.7095118918770215
  0.5654528844039960  0.8213970185739982  0.3047504336471925
  0.3138162870254380  0.6071741504287658  0.5960157599062063
  0.3216398361680291  0.5503167880141806  0.8186198920174343
  0.6838638197281135  0.1964242056980637  0.1320593204813635
  0.2470466505495144  0.3376437860446405  0.1215229674723724
  0.0209754890288673  0.8226179334554580  0.2937812777014993
  0.5718367659055180  0.9707580895602954  0.4693277636777949
  0.9986829525134057  0.2025493021126421  0.8340940588156143
  0.7152513294238270  0.6845690777529742  0.1122789415557834
  0.5727163141636159  0.5598357859068960  0.5775899212090071
  0.8342673399960751  0.1610178110601449  0.1165345174743912
  0.6547491737231497  0.0339441451649954  0.3676774796852855
  0.2995232227083240  0.0244592092700763  0.5385054508910038
  0.0984898288760645  0.7454699625532309  0.1442285126678815
  0.3804154520142801  0.5834464321848948  0.8209909338419756
  0.2766317893417841  0.7216865101444815  0.6711556186778093
  0.3125982554103556  0.5455378927570418  0.1368189951219803
  0.8394262878024815  0.5143818622528028  0.1642427724284791
  0.2846730000224201  0.2595531644570637  0.1178637531691166
  0.9340119633849794  0.1875467691069486  0.8792490787392349
  0.2989510576034654  0.1411948344812944  0.1129598017043585
  0.6894251972615123  0.3004942371899357  0.4673081877487594
  0.0523905808907961  0.4559828845821064  0.1676507569396269
  1.0037357332256192  0.2438442127878997  0.1184095397353778
  0.7133544188123040  0.0468718573782590  0.5568450557297892
  0.7480962134892725  0.6531505342644687  0.0160697090869208
  0.6596465130104247  0.9043555128777263  0.1403035348015286
  0.8002160554090382  0.3674945157303020  0.1506494073574686
  0.2439695951938640  0.5769670082364151  0.6980035588048822
  0.6381785817443547  0.4120433095256028  0.5622992364372109
  0.2844694614555617  0.5881756512377178  0.1400765703997534
  0.2315167780447333  0.4225715613164589  0.8459205352519373
  0.3603190012739435  0.4578550214890981  0.3946114064117865
  0.7678278408829333  0.2044761083185906  0.9979862157879275
  0.8310441382770554  0.4648470584196452  0.6246122999813144
  0.2168501108645053  0.8010577451621211  0.9789526873587525
  0.5004999678825360  0.6860296189302633  0.1057709925767865
  0.4942305912400041  0.7036826516434630  0.4435519408475853
  0.0908804439298681  0.4834198913332317  0.2412358564357668
  0.4782437862269693  0.7139724482322822  0.6332945195750358
  0.9674638396434566  0.2040207806090292  0.4833972801323850
  0.7343017936313915  0.3633644830837383  0.6878928772986900
  0.3160030742461346  0.3771518612104043  0.0929432098434155
  0.8167021376007934  0.1601603128785374  0.2484401381193529
  0.1841275906557003  0.3729575453895088  0.4903167044902579
  0.7425826247305003  0.6506855236435650  0.6727861471726694
  0.9330431656568048  0.9596177413879202  0.7538385448966445
  0.1071179476604331  0.5537010642714812  0.2121907968186298
  0.2445505115502883  0.6410784272132228  0.6378518755741921
  0.7664710829449907  0.8035334188173251  0.1102521180681733
  0.8507918291855202  0.6433186098206042  0.6161976239027324
  0.4146461758730796  0.4920963150685336  0.3973628670471079
  0.0247087625682029  0.6202871287961976  0.1732596219371372
  0.3355889324188874  0.8633163286636313  0.5627909611283496
  0.6346822925992487  0.6802351417409612  0.6592031462945060
  0.5226133091599736  0.1428622450106036  0.4659157850453060
  0.6064863145414724  0.3760233269108519  0.2061003340410211
  0.2003159252559442  0.9342965538646179  0.9002064937413694
  0.2820260752832542  0.4560359611607002  0.4252239327858309
  1.0040774111092166  0.0404187638995351  0.8726620577125839
  0.5708534817306501  0.9208757616979142  0.3892800328143339
  0.6740834914004933  0.4184770303453845  0.6470657098519524
  0.5359297129710823  0.1823158087782362  0.3887073309300201
  0.8289338869606611  0.5137298647573928  0.0721282408457877
  0.0753487481793572  0.3172451085333280  0.7283035292793318
  0.9765716670443912  0.8951654351354885  0.2844696539709188
  0.3606160836292206  0.5155421263343475  0.2445979923926998
  0.2151152853106866  0.7734997650466278  0.6414405146226551
  0.5024174734510005  0.7535614955217513  0.7254528297438168
  0.9400923234447817  0.9896733856866204  0.8659412561431488
  0.0646811907247866  0.7909931811403975  0.2210074626312592
  0.6194625666315806  0.4528589900672441  0.1980307974437188
  0.1174452438135563  0.8385484822461289  0.5728976029177066
  0.6471644453029415  0.3922942295702108  0.7496593530887051
  0.3609477879659361  0.5165021717485996  0.4570953697025648
  0.3993174429964523  0.7309118031754765  0.9337217967204493
  0.4968018682193607  0.5802005749935084  0.2986849783526694
  0.1013924174573268  0.6681141537485328  0.1916263004247254
  0.4822508785381951  0.9714603970240783  0.9505843557021654
  0.2525987736771363  0.8733854106962944  0.4439827796606223
  0.7568777834682513  0.3262852624964884  0.3239367791697009
  0.2903009627314140  0.0976235469402413  0.3730242161400424
  0.9249033411210108  0.3834164977555083  0.4465032501381805
  0.5637369553720578  0.1349016401331408  0.9506681176458123
  0.8217688813350156  0.4228921747987321  0.7722058215276491
  0.1396068270110125  0.9454760491284915  0.3768921626555695
  0.6543777019103045  0.2612016593617620  0.3816477775927777
  0.9204313070087892  0.5886637380337363  0.5143222012758000
  0.1425293123987234  0.2361058981330360  0.6770852940487803
  0.1378292852940381  0.8802282776603281  0.2028158373567016
  0.8131540534725326  0.6482262471645865  0.2593033968230528
  0.0458274565943591  0.1721588380275914  0.2718307715950092
  0.0540762144904302  0.7183884166877995  0.9643292382354638
  0.0431772167384760  0.4949778459399389  0.9955695033444300
  0.4826135322802182  0.3718079383482568  0.5415888519938785
  0.8554285304782867  0.7620680529715661  0.8203315612848074
  0.1501878883488785  0.8849465184923087  0.3044263922893244
  0.5926698412831776  0.9621895865746887  0.8057389061849698
  0.8922025633131874  0.7799946111439036  0.4628036599818743
  0.4257271243299951  0.1636500043832438  0.5927635833929983
  0.3161539656934821  0.1245252075284223  0.9053005142724733
  0.8213796714814473  0.6560805947213632  0.9473307399951213
  0.7972398028657925  0.4497912610437388  0.3829982478747822
  0.5064890002543447  0.4010445514577943  0.8230104766026041
  0.5292859807367718  0.4072403654500413  0.6903780019834296
  0.4755918369495489  0.9716078512990743  0.2541102690546932
  0.3013070579447821  0.7747188136838514  0.2388733028733889
  0.9929009315687700  0.4839316898130488  1.0024056032063957
  0.7202876618412417  0.4493717070823165  0.3986889846050902
  0.7373294293361233  0.5097705043066389  0.4973095153027461
  0.3323274484955290  0.4103702614367435  0.7268626559368976
  0.7506315194388574  0.6367512877624945  0.9117090651658599
  0.1650703285935005  0.5734492247234281  0.9913160419791915
  0.1401666449727439  0.1635830972635550  0.3911424937780874
  0.7027220036942127  0.5185096681173632  0.3468874134622817
  0.0602804590382221  0.6093392221939369  0.3383315990484247
  0.8068931757139761  0.6045160285770667  0.7831186245566650
  0.0321159358531303  0.4746279062566611  0.4020405764875110
  0.4497557304972618  0.8455003075774754  0.3837889718172308
  0.6327569490416218  0.2717404775190946  0.6149957422224179
  0.8222629901275061  0.6974936103916107  0.7979350502969630
  0.0846731395052385  0.5350896947803371  0.3874441939173325
  0.1994418915374985  0.6662442767166691  0.8664744208905327
  0.2846515303443686  0.9445193469702344  0.4371243124559365
  0.0604400338923244  0.1137896888346713  0.2035896632142012
  0.7698516398340349  0.8605320763802116  0.4035817968751776
  0.4985179529115096  0.1396762987816079  0.5923552939611237
  0.3648661927917274  0.0218768347870783  0.8382230654468675
  0.8728089703945114  0.3522231861848402  0.7830857317882111
  1.0071478053428335  0.3928081637890759  0.4262569196203846
  0.4632871467856061  0.9322894222785999  0.1989117988879054
  0.6488319680779566  0.2231861067949855  0.6767430714691970
  0.7787325530936146  0.5111422720227815  0.3309063510680071
  0.3073867227050290  0.0328183293934078  0.6933482883495113
  0.1239954192887952  0.7134531635245266  0.9045862357662252
  0.1917971912584381  0.2306916438794553  0.2810819779113040
  0.3908706852956764  0.7662340146600297  0.3717260066338259
  0.2320074501945000  0.3456558351555349  0.6452215593543734
  0.0178337533016046  0.5955024755687249  0.4863672305963427
  0.5804618142448797  0.3299263517757513  0.7464111465616997
  0.7275445809563825  0.6293437870636731  0.5132227991921272
  0.5350352000162416  1.0025416869721628  0.6537949506497667
  0.8761910681834764  0.5267053131017254  0.3158919256686726
  0.2178009994966296  0.0200020728227011  0.7336409983180554
  0.3202253091580711  0.8163284454158614  0.3892306279935150
  0.1734838929067012  0.0097353308473709  0.4165029840476046
  0.7681910325374329  0.4647754947026663  0.8206356486116536
  0.7029330554597721  0.7742110608185033  0.5049763134024948
  0.1879322751454751  0.5956459196450498  0.9248299992953141
  0.7348929409054177  0.5426957477031006  0.8963166867944857
  0.4184484174660251  0.1029785776590706  0.9131267069692204
  0.6134358080878580  0.2399704959228740  0.7507681439219517
  0.6767390769124744  0.5728603384158326  0.4810354186785434
  0.6250249561880997  0.5738689513941462  0.4255385698057152
  0.1932868042883219  0.0569758420159569  0.7985274185462590
  0.0876799109747353  0.0688499398608558  0.3711671791430524
  0.8645191036672534  0.7864887056386606  0.3167674393621186
  0.3624756339225823  0.4234337744216772  0.6097052947896570
  0.0795057735086110  0.4856060332895703  0.9168388593833732
  0.0161525638595519  0.6046129422604452  0.7701478860168121
  0.8376982116062978  0.7095740590016827  0.8946018307157274
  0.5108141788474356  0.2900444008135317  0.9489325848700794
  0.0639229153309910  0.7713478709969553  0.8116802393531821
  0.2108748159589129  0.8554572626237079  0.1726222589191564
  0.4796814861849472  0.4390006732720917  0.7484942500185333
  0.9600396107834589  0.7309084330215598  0.3443775285586491
  0.6559417594208498  0.1043349052880292  0.8055673947441216
  0.9885192023014243  0.7496691435124578  0.9032730724178754
  0.7678837027658859  0.6876877759125628  0.8571834535675742
  0.6665134377378078  0.4958071439673137  0.4355165509916460
  0.8668144722982122  0.3063874505782206  0.9342568574190113
  0.0604278901846624  0.6907006574127564  0.7775824036957906
  0.5295788182355945  0.3829655790835236  0.6081136576903140
  0.9524500388234807  0.5818301279388143  0.7682857160749209
  0.9615193410323524  0.3966296585287042  0.0167280171546103
  1.0030010597915873  0.8359645555630499  0.8132871197563889
  0.4448126114783774  0.9356094919206244  0.7872422482598200
  0.1062371832148304  0.1260786520844580  0.7379718564633382
  0.2668430521381211  0.0177053387548836  0.8310132627830010
  0.1704848792638989  0.1465517386674371  0.6881702826736179
  0.3806016543922751  0.0635547282794785  0.6486218148207163
  0.9699786838236447  0.6953381150300053  0.9746681297251971
  0.5854291559308838  0.2311890772878042  0.8811772437418722
  0.1177537627687647  0.6478680623314477  0.9731614446553608
  0.4705332423690766  0.1505223677782656  0.9382997258918068
  0.2774379372679222  0.3605246183189423  0.7195567319604154
  0.9046265965067797  0.7228067276979913  0.5215574103606594
  0.8934512673065941  0.6232933769367102  0.9899316364140740
  0.6760982081836795  0.1314010268641547  0.6905302030744879
  0.4431937264167054  0.0501579132479151  0.2499486367804352
  0.6378181133198310  0.0723513886729322  0.8785834732257094
  0.8761983618873065  0.5133578361827641  0.9998204759350563
  0.7411796066247183  0.5844700626252759  0.3225052079613174
  0.4330214757104646  0.4272021186736740  0.8191854771005144
  0.2827319255195844  0.1748389549175874  0.3313962268075317
  0.3232051121774496  0.2775908962740394  0.5892233662314755
  0.0146100307435213  0.6638987788029040  0.3048243162128472
  0.2896471491131000  0.3647621765744802  0.5869709538259087
  0.7410222743908452  0.8378351192046070  0.4703283628044577
  0.2321380834772187  0.1670586356429053  0.8917176031446454
  0.8155169745601012  0.3747486003307203  1.0038890036952957
  0.4218544168902131  0.4948412572600636  0.6096286681591098
  0.6454645517642095  0.5824631290915869  0.3334094078160130
  0.5461838650793016  0.9688094093528484  0.2971894529525623
  0.8829614160554535  0.6393522897355088  0.7570096695079986
  0.5170033581111041  0.2828881135563093  0.5273898112030247
  0.1764788687121319  0.9056891723219489  0.4500174401201529
  0.7789379699293840  0.7770417209211858  0.8706696107756401
  0.7780516211337142  0.3710257946042792  0.4051386264439251
  0.0845415762020740  0.5422418927957446  0.7645109031827770
  0.2238337516265576  0.1518658599291919  0.4019378390377055
  0.2691776953609408  0.1104970829166938  0.1884941337069627
  0.7053342783293925  0.7252333190257768  0.8156307670296723
  0.9216153997841331  0.8107372953696457  0.8109020656726750
  0.0785120906834309  0.5649374803918563  0.0369195121015323
  0.0806725540462199  0.7837701217429337  0.9043434180713327
  0.6686095337192109  0.0833676337387182  0.6192780622776274
  1.0031269392471311  0.4557217324801888  0.4804137707130079
  0.1758592085500826  0.8705280870293172  0.3873851743754240
  0.3518402531045761  0.3578289725566417  0.9259056074797640
  0.8373462026824497  0.3884275631077079  0.4793949292766591
  0.2618217904887946  0.3356784280417792  0.8368324693107846
  0.8678360302197198  0.8512177472751105  0.8559481156696802
  0.8036540916004957  0.3061294006989355  0.9802290456877985
  0.4913798531776171  0.0719464287793838  0.9427312764250062
  0.4350990520487040  0.0983911656328881  0.3338350535197879
  0.4038845300316777  0.4643611724587265  0.7556834532322001
  0.8549196386193372  0.3851052414491522  0.3856834993631625
  0.6762095414672528  0.5784250083807121  0.8512446368102000
  0.4249287079828991  0.3017115130151335  0.5345990241264206
  0.3333342180652580  0.8746321945741438  0.4656994281685335
  0.7193529343231115  0.5339122114722477  0.8008704500988951
  1.0050475287439307  0.7401707077323847  0.5163552033719701
  0.3776378326815302  0.8666466475944433  0.7811787278610728
  0.9177854031845791  0.4530499349982943  0.4973565845412487
  0.6421319671671658  0.6508020968637248  0.2856127774720085
  0.4570590348893682  0.7862273273633253  0.3050906645029171
  0.4080470834800231  0.9360263654224107  0.1372556392299631
  0.4142845350226907  0.1246373656429066  0.2449506407278184
  0.2955160129197216  0.0853809297028738  0.6315053528812837
  0.5067795753814646  0.4571703039268905  0.6326103370103329
  0.8399680285576122  0.7359741041827955  0.2230725321149839
  0.8502618282985402  0.7971828312171374  0.9082372405268234
  0.5894239709262820  0.9973919586377009  0.8920533934273028
  0.1960025096948013  0.0731862446602595  0.6805302257527928
  0.1668876120712682  0.5861509453199857  0.8334284733036592
  0.9136212800012119  0.7233894715453414  0.7738630150463066
  0.7671830073492877  0.7148291522187961  0.2427009135344433
  0.0450168483050039  0.4857236804820046  0.8267519138620636
  0.4055749757553290  0.7160018696941439  0.3173675781035024
  0.4445690685222854  0.9787198795082891  0.8647888520797840
  0.7595658674886351  0.4077986938666965  0.8716578787027218
  0.9495382733495571  0.3847305238903149  0.3660018236419726
  0.4023022013126353  0.9126426379328876  0.7112833818361409
  0.7054798306869881  0.4936895557366124  0.9456592515159906
  0.9181797809251416  0.7962866063122509  0.3922580096480131
  0.1917486368522186  0.1978746948025637  0.6246256764302813
  0.9854134131818989  0.0203736947253108  0.3550462284362432
  0.7966602692242732  0.8439883605811208  0.5472492674741047
  0.6335648733033388  0.6314488285282110  0.5264037524688553
  0.2931659045910280  0.4149595362198819  0.6528240341218600
  0.4912260796812985  0.8658340917791989  0.1883483214339515
  0.6712909159595054  0.0242187844119596  0.8230908040796766
  0.6922441523740480  0.6732991114476625  0.8638339508803990
  0.9560844147647427  0.6570702935745166  0.5427413944857811
  0.5905539678077435  0.1229387653044474  0.5926197224338234
  0.9469837313142924  0.3508910576032817  0.9187799589936564
  0.4144430987906933  0.8263023221332695  0.0967443030900590
  0.7879263194194186  0.5126022267533896  0.9804473570342811
  0.0359193883052673  0.4102138937002288  0.9656368459393293
  0.2588248237450708  0.1916548563807628  0.2486700883082525
  0.9577197587455500  0.5432210842712282  0.2831198087553599
  0.5912508153639318  0.2582813484692088  0.5431429945002273
  0.2044430823557713  0.9961417042264997  0.4558935820561991
  0.9246999119690074  0.8231031879021906  0.8927996248588407
  0.8258705148049316  0.7069461312420299  0.5365219537758068
  0.8837961948828947  0.4535597389592766  0.3484567472924260
  0.1610770612952158  0.1952351089373195  0.8703251620058030
  0.3358884331620255  0.7565808341922825  0.3148615607797890
  0.7954835396500676  0.7957553715631677  0.2590660121212187
  0.3969961300311484  0.7168247872174653  0.1813463211480994
  0.4709870048901063  0.4358752402787167  0.8897857798196954
  0.7652039687194526  0.4234651545445675  0.9704626358288644
  0.1806718590861769  0.2939794988175000  0.6204235104519862
  0.6040677334213882  0.9647221804986770  0.6627385845450093
  0.6469374373128476  0.7034635133703795  0.3484214061542763
  0.5014476646324857  0.9156053049356007  0.2701098232830243
  0.3223820730598879  0.9463601264008238  0.1158786217599617
  0.2129141376428910  0.2385428669069060  0.8969707285963404
  1.0063426520266712  0.5368699352462770  0.0586570176031694
  0.4541871533903209  0.0321648723214198  0.6471239287916967
  0.7258239411656944  0.7806528424239424  0.2729860884072760
  0.5408326242322526  0.2130022125238791  0.9648874327246880
  0.9073827287547417  0.5028628548583490  0.7503201046461594
  0.3014226770876509  0.8010295939004667  0.1118329832010201
  0.1744411481776241  0.6476648594970588  0.7794275653295024
  0.0981882184057323  0.0542744765172366  0.4481156796776958
  0.8108859602641041  0.3486072790230107  0.8312802464335314
  0.8201740670511602  0.5863357580214682  0.5307820790043956
  0.2729036026205600  0.3076927390912962  0.9176826035328141
  0.2438150089181801  0.8115517134620199  0.3736099665633406
  0.8958806307587950  0.6654424677170852  0.2300429811768037
  0.1281849789722619  0.2276336300481390  0.3235315809324412
  1.0079578464281946  0.6153536015841816  0.2887467759206496
  0.4460172576364376  0.8030379543925457  0.1861984307916506
  0.9775728067014942  0.4727392125591404  0.3382802357356092
  0.3424727412198235  0.1757417548716032  0.2571439413604311
  0.1356164562444071  0.0499744166367782  0.7375642795564721
  0.4116853812979202  0.3964338097617270  0.5249633351116050
  0.9544888581876083  0.6431096573751498  0.0328663617747934
  0.0419903970856156  0.6584630222807804  0.4750837363783465
  0.4971494412153653  0.0377915064937704  0.3237647849241652
  0.7167530721403530  0.6592622015816997  0.2745375567293318
  0.3952435455188222  0.8284018291674419  0.4369685748428633
  0.2685500672268739  0.0729555493909348  0.8903919916747536
  0.6149653902860074  0.5118338741927643  0.3752273703176214
  0.5304714710220474  0.8956119723022825  0.8002963925680198
  0.0993413565372321  0.0788507436539189  0.8023492390754132
  0.6761565556564287  0.7818194744808923  0.3608499470202939
  0.1163323743328906  0.9035390676867747  0.1260052968887384
  0.7134294966862358  0.8462277153085936  0.3259451670960806
  0.6402268781666330  0.2001071876734144  0.8210354658041550
  0.4906045567960551  0.8942779060208540  0.7266323740944699
  0.4969787354971386  0.9254915560124661  0.3616392342239357
  0.6454180133882579  0.1735026217875175  0.6143989462370918
  0.9601340732445454  0.6544568561453296  0.7919324089161298
  0.5736439595949485  0.2453425296705695  0.6847299763605330
  0.1504724058960994  0.1006530424956062  0.3180773516549361
  0.3011152718462705  0.3035130103151790  0.7749527467473903
  0.3407190017501370  0.9274630745407235  0.1964827064536406
  0.5317727964384819  0.1770688442907846  0.8793571466529119
  0.8390472806285589  0.4320195703424319  0.8461362098410766
  0.3242118302061283  0.3260016277019684  0.6594512637388815
  0.8795185400638189  0.5911621388200454  0.9073996616120186
  0.3296259442999141  0.0796635382347212  0.8287095322658339
  0.0117881575430794  0.5323537757146697  0.9366930377412754
  0.7441266684664427  0.6516485835847501  0.4219527113060856
  0.8473332107738063  0.5774904614971977  0.4566069406543358
  0.2212980012673990  0.1979092416357881  0.8187689218320946
  0.5017757930042769  0.1902031677804640  0.6547506883997090
  0.3503870458067051  0.8546510310887564  0.2457464233526005
  0.4188982336894057  0.0633288809594987  0.7117717418478143
  0.8532043320252639  0.5205662312054267  0.8883848944712631
  0.4187806856253015  0.9173712110052150  0.2479708084792126
  0.1978103541327272  0.9067984836868893  0.2513750567031598
  0.4732982456382319  0.1084834881554904  0.8535584313397432
  0.8888282376917344  0.6594654821136302  0.4658245706411960
  0.2398533258887127  0.0119470693785436  0.3744148108946283
  0.1706309258589053  0.9671081619860622  0.1852904268849377
  0.8569965391034612  0.6655176751702334  0.3189806469046864
  0.1773251448203329  0.0216786719224481  0.2689548760755284
  0.4344322228289552  0.0142369352250217  0.7808775715082653
  0.3406135930288411  0.2299466572809651  0.6478451775549290
  0.8867373541279142  0.6692750879707150  0.8462540725164978
  0.2467635318541211  0.2574110785932155  0.7690310133811392
  0.9555339385862385  0.5854607980716284  0.3550543205247768
  0.5107634788943871  0.3516039611482289  0.7489240798204152
  0.8214193124474879  0.6216798078063539  0.8581923115344536
  0.7928200576282143  0.5533120024271972  0.8387309025540227
  0.4373106285051715  0.4004473874713123  0.6074007320847669
  0.6416971560302747  0.0680732172788650  0.7353096272810438
  0.4686431567640365  0.3124330610166262  0.6094305560465687
  0.4216734601601149  0.3906434647928316  0.7485089193996226
  0.2435232409142787  0.1204782751763434  0.8293041541109890
  0.2397229403755303  0.8748351830635489  0.3190345377860294
  0.8795583305399666  0.5789433653436976  0.8119892919741106
  0.2067089218819969  0.1139031569606403  0.2683214547045684
  0.1176851473228507  0.6363265689025926  0.8817057408771007
  0.3806168056141321  0.3749016308867665  0.6678299632318365
  0.0401083588181793  0.7087209995330481  0.8715476871899117
  0.2058561311720143  0.1184125546344926  0.7534459016586720
  0.9857303786897275  0.5308374744229478  0.4490426534687227
  0.9552954594461492  0.4298171197863858  0.9390165688941886
  0.2778133923844738  0.2648104654262554  0.8471891479092248
  0.7889462465428383  0.5900093258572572  0.3808215355268528
  0.5902965795044364  0.0453571347077731  0.8097615256786438
  0.0442431145805556  0.6321356542814039  0.9316001846123343
  0.2887869312483985  0.8964001927029703  0.3804754270393614
  0.5893468862573500  0.1500043035384613  0.6731258622787267
  0.8702872278716490  0.7293145968087374  0.3760971800231083
  0.9769006706062400  0.6905036145423674  0.8759616139126697
  0.9493305105607571  0.6601926251814714  0.3127802268865960
  0.8423440304715414  0.7182669718251163  0.4466044922929413
  0.9928062276045061  0.5428648129355659  0.8292769243865369
  0.4115720474005939  0.9792273048461937  0.3111997652462620
  0.2324083740631673  0.2150566342839032  0.7019014589227088
  0.7937491415542339  0.7104666134368153  0.3924360171291373
  0.5071879121558762  0.0738428454575865  0.7869567320151256
  0.9409373117284534  0.6051335208684750  0.8591859325755995
  0.2904567702495480  0.2652090832215304  0.7035614342710740
  0.4859490917072925  0.2625410888746273  0.6686907552889174
  0.3830676287691553  0.1466877896483555  0.8561900709935030
  0.2394359968442194  0.0506028729333134  0.2143484833696227
  0.9408233229453654  0.5536212097641324  0.8993635081151543
  0.3488518868352112  0.9599427189869767  0.2557220539117718
  0.2855106859055874  0.9609452278731020  0.3283510885140370
  0.5387666164531484  0.1827124043783213  0.7271925458258149
  0.4788639842829784  0.1331536604452797  0.7359599411522918
  0.2599195275298844  0.1612494654741425  0.7577491012901055
  0.8415367056829464  0.6457377753560851  0.4098055148474236
  0.3233971469074736  0.1784384355990166  0.7099453123986473
  0.2663583581428315  0.9719594065860008  0.2463569273757057
  0.3915156800333221  0.2854388359639659  0.7973098874218179
  0.3701841314502702  0.2228122591954943  0.8461622866527176
  0.4175137436156071  0.1091140786786446  0.7925439204426379
  0.4941868531172193  0.1694538386813960  0.8026819302176679
  0.4361387827455354  0.2962967493110753  0.7253112278295315
  0.4688021468336651  0.2084570816244358  0.7321897013333918
  0.4609523662872437  0.2561396076857187  0.8093421861411797
  0.3165472826318360  0.2305727384346347  0.7839750923514794
  0.3805035758495103  0.2465815905664900  0.7284458525001599
  0.3491577585421695  0.1422270832645584  0.7789263707477158
  0.4052593859032951  0.1880698487058283  0.7806584654293277
  0.3929799123363521  0.1517529325298029  0.7083422860845050
  0.4474885389043074  0.3322155441076245  0.7989461476556726
  0.4266834767678210  0.2916376577897336  0.8730384773410915
  0.2814008372763837  0.8913396378090470  0.2615425061841334
  0.9007234269146210  0.4510026011037203  0.8934053742484117
  0.8851754785443859  0.5915611311792721  0.3666251698180347
  0.5495429657072057  0.2167563111530729  0.8000134284589385
  0.9634497260954097  0.6163208486932902  0.9392910694518084
  0.2156764025074326  0.0878158170053612  0.3464930753931312
  0.3363321004688238  0.1084072097524720  0.7122951400754790
  0.2599928798223944  0.9049109355967144  0.1819427052247349
  0.9215355334460503  0.5104995104389232  0.8293428771116563
  0.5710277228132610  0.0940614000148441  0.7381089851854776
  0.1615584186586856  0.0256433971405455  0.3564496300344888
  0.9823010553533850  0.4816817788745119  0.8709349315962932
  0.2039223994199577  0.9547250430250080  0.3131515595927534
  0.2597953273099759  0.0395343123553111  0.2928916277959802
  0.3564239680084223  0.0440136171974507  0.7586118226450724
  0.3984500519522817  0.3014077983795860  0.6526786159665332
  0.2727024473016588  0.0779946931284495  0.7680044995187015
  0.9328882558692234  0.5950783987071487  0.4237909998285647
  0.3441893504978613  0.9010025238319334  0.3073385108254932
  0.2934729670386381  0.1703432316492562  0.8379238693558457
  0.5650428472365997  0.1401340544238381  0.8106519388263244
  0.3655351653884912  0.3219783784515253  0.7281631963462106
  0.5247589564410101  0.2770569104267099  0.7504208657974610
  0.9281243138273925  0.6615423210507446  0.3767607229869353
  0.0291963171730136  0.6302132868574710  0.8491431801483078
  0.4392003136372767  0.1947310545012458  0.8683766780064179
  0.4703558722518446  0.3580849662490164  0.6828071698397994
  0.4286816982133170  0.2117964302835029  0.6645250753236411
  0.5159045356148744  0.2510103875868209  0.8686855220104791
  0.8283896150485432  0.5756426630021189  0.9992963487394115
  0.4228146084902833  0.8975900176904835  0.3248915305239524
  0.4925560195944022  0.0440489912749282  0.7161059941920277
  0.8041734704839517  0.5668685207617916  0.9326127037132330
  0.3583805552920632  0.9577742531645230  0.7666667736266349
  0.8202471876980487  0.7868696401898215  0.4041360777008302
  0.0998334778480259  0.6177168346657428  0.7910789723396837
  0.2522184438505514  0.2693527435083559  0.6316356895530554
  0.9375855525769969  0.4550600348269339  0.4221782639650279
  0.7456030203316638  0.6188940015560264  0.8380006878953821
  0.7245102863662244  0.7249432484040718  0.3330765184219612
  0.3927022154945956  0.9901525145654321  0.2193746131440405
  0.1422599897383094  0.0900026283598335  0.2282178944319935
  0.4248006012236343  0.3317418891880731  0.9518050037327411
  0.3814132035249388  0.3490502438046915  0.5904989605881098
  0.3549022728820522  0.9631756533076133  0.3747485014980802
  0.3514478634681095  0.1092399685769200  0.3106933498071278
  0.9820176353301251  0.4754847234802071  0.7949283605924929
  0.2825482495749497  0.1817922103341868  0.6424517057507454
  0.4700617732685644  0.9809700044796207  0.7077094843436187
  0.8834598973550990  0.3644131986225898  0.8661025347136345
  0.9132847552515346  0.7371543509298663  0.8724814502736323
  0.5460429730201408  0.0816337430944349  0.8794216969586981
  0.6968768361797413  0.6384129596447685  0.3653171574477872
  0.9417658707543044  0.7160481804063933  0.4364090885404626
  0.2581430706315155  0.9859051421206837  0.1472773640943652
  0.5723806683550389  0.1997277336260468  0.6119474947768085
  0.2603338141837128  0.8703535597234343  0.1182016816901399
  0.3579049132077106  0.3711985302884724  0.8058908122453958
  0.4418663724793357  0.8419251524602012  0.2477862508539072
  0.8158770303128111  0.3771900440544224  0.9226686115456967
  0.4383794558838829  0.4453142736783115  0.6797171932775801
  0.2363923502602450  0.8340759212535513  0.2529621749912918
  0.1701649660041408  0.0409918573398126  0.1591161141215113
  0.0215661587466799  0.7342601576226118  0.4229154602505827
  0.0979046817350655  0.0133526605883765  0.3099811059329264
  0.2164312153459893  0.2902086493331898  0.6986814560421528
  0.3446898677494888  0.8636472501763246  0.1230804245266739
  0.8117990111502186  0.5062488603260620  0.4837273830661690
  0.5421889208191455  0.9415165497941317  0.7269890956497030
  0.6193892759896366  0.1394934328572994  0.8711498236283276
  0.8156668633557911  0.5810880525532408  0.3071640616105198
  0.0983496598291974  0.0269450766405078  0.2271228386740982
  0.6797549004234721  0.6925427764716631  0.4933909345733216
  0.6015417725083344  0.0770156843628121  0.6701799719161677
  0.1466246025712419  0.1438426789774940  0.8045748266364731
  0.3969857562232210  0.2504745636438809  0.5883000304801136
  0.9577180175785229  0.4000275203837352  0.8508093960048577
  0.9776763018873603  0.7430030814877736  0.8273575162110312
  0.0180318514155545  0.5816866845652313  0.3959162862164019
  0.8008906537863458  0.7855785920019452  0.4931828622115423
  0.0559163033734012  0.5243865282398391  0.4661855590696344
  0.0783453024389824  0.1441545587841723  0.3429103033440995
  0.4876689591092160  0.2366371931588002  0.5868481015966647
  0.3787977487077493  0.7757961924765846  0.2521865245549116
  0.2868658198729595  0.9812065203674617  0.7630920295762942
  0.9047157274016570  0.6032834760497440  0.2768912499941852
  0.3138715135838622  0.0267869669217519  0.4082148837998573
  0.0741727098041679  0.0864642200180568  0.2766614298894162
  0.4868027528239353  1.0075601762492665  0.8715948642369937
  0.2484969032738072  0.1210055316978597  0.6869371683633918
  0.3793121656914184  0.8844366911829608  0.3810100714895219
  0.9838377758583861  0.6479165493893080  0.4513042589166326
  0.4112514614856729  0.3626597063553099  0.8650803278968149
  0.9051212229644384  0.5206368981094448  0.4699473933253483
  0.4081255134882067  0.0457995929588941  0.8529542324290336
  0.9086497280699911  0.7230959311961018  0.2865632768907239
  0.0758224307205888  0.5591094203195686  0.8540888247666213
  0.3134193162691886  0.8355512308725294  0.3090835362884558
  0.4593475585978826  0.2439825118349780  0.9315574148435180
  0.4792832494847410  0.3417962799688776  0.8847800103957751
  0.3016408933070827  0.8365893192292350  0.1829619420521487
  0.7725251915774006  0.5774685980043184  0.4704561464341665
  0.5291258979880854  0.1011145261137327  0.6719424992562798
  0.3340910983269613  0.3082426625646512  0.8634101731847007
  0.6939621640407664  0.7109353634783928  0.4032473471191092
  0.4431463685368177  0.1161273545628969  0.6530516100339939
  0.9030319999821166  0.4392210051460960  0.8004423649399177
  0.3112919832179728  0.2191584506594573  0.9030225193207804
  0.7842392429807497  0.6545125663065307  0.3331490640233430
  0.5425111928934192  0.2884386440942218  0.6079018430831163
  0.2167342426400939  0.9341758130358674  0.3921034247156228
  0.9285523814416023  0.4902503573126128  0.9427854971836671
  0.3932078054155014  0.8336381705773520  0.3262343941025205
  0.5753419213745853  0.0192199076663540  0.7240415487411508
  0.8474318308038232  0.5267112415819944  0.3924966581467627
  0.0913316747243650  0.5626915893071004  0.9435828546657794
  0.7438848210699777  0.7731194327518361  0.4177630093757665
  0.7529370538081240  0.7173840212295947  0.4784037841899608
  0.8139840042656223  0.6491614360983969  0.4774233910657334
  0.2843544787374518  0.1077137106232568  0.2673339707064117
  0.9446284862218375  0.5552265324926383  1.0011794386323103
  0.7752224166472650  0.4363245127684736  0.4542055962047169
  0.6696586260802443  0.6359640845021015  0.4350878021046913
  0.1215210224471353  0.6952253024576968  0.8334844444548251
  0.1346690694464598  0.1696672497356034  0.2763084958456028
  0.0221036488094816  0.5906844246094268  1.0060636317027192
  0.3686691213578233  0.7908401970096884  0.1684957225547047
  0.7741753243867598  0.7967275350734473  0.3491848690621994
  0.1697393017361135  0.2032100311323716  0.7541308462359658
  0.3806555816980726  0.1898075528127970  0.9199707439409418
  0.8467285485716242  0.4934279518375030  0.7994397682520931
  0.8462697895462310  0.4527548216950880  0.9448099763080340
  0.8656445131020722  0.4591315924484872  0.4417801197285425
  0.6275382193838953  0.1622693163906913  0.7538720823075649
  0.8111887377801824  0.7264185731200453  0.3008789045172489
  0.3555386679043259  0.1552783008889183  0.6364234600217022
  0.5361061465109900  0.3134235456007116  0.8197999011401366
  0.1601501722971435  0.0912107491312747  0.4064605778929284
  0.4062150088009882  0.8612277683453504  0.1731896196767056
  0.7012168181503421  0.5680241394423801  0.4112543802735670
  0.3446981185334457  0.0566155544687592  0.2367825714642998
  0.9053173346430445  0.6787567616347484  0.9203712800320817
  0.3663117425955889  0.2637954474929394  0.9285017065819582
  0.7841814207974969  0.4759560063213717  0.8952690693041986
  0.7615084876561661  0.5125537088722979  0.4228652172605625
  0.2053071517488629  0.1606857776778929  0.3206764608677084
  0.9253434171631775  0.5257270042621653  0.3768227442856832
  0.5117661606469196  0.9911968247255406  0.7864278147233608
  0.1274494942357352  0.9516593659469997  0.2648727215178044
  0.8860521744209493  0.3905747399917035  0.9636452623170013
  0.5449860623156400  0.3340370759055574  0.6777889290559842
  0.1996288242649346  0.9168349399161729  0.1323250388094486
  0.9963092854139676  0.1465016247376544  0.3690518094182287
  0.9130920463527759  0.7638303887015321  0.9576892388238127
  0.8484449378914067  0.7776392676708814  0.5500899013172379
  0.4877919072785990  0.0612823046807037  0.1819527592846545
  0.3985625619197444  0.5711063295980899  0.6085003515719334
  0.4505397710713805  0.5018332527438020  0.8864775566535520
  0.1978654157572565  0.7500853584482080  0.8985580107505128
  0.0970796002118362  0.6655412624437355  0.5456146580872675
  0.6358126826319290  0.0758748401466297  0.5341047356097858
  0.7951299570511918  0.7883891321766076  0.9629237592565499
  0.3975515573230913  0.0312941762465588  0.4443872118104429
  0.0673084585830519  0.7504452845414218  0.5742172450962693
  0.4199937543307067  0.6674439346490542  0.1281350232193125
  0.5439465063137793  0.9799030731770758  0.3829611614007079
  0.2720228601332006  0.8201682020186440  0.0314869636062403
  0.1956707049386832  0.1253116071648512  0.1573686439575724
  0.3509002596238984  0.1721021621282562  0.3730417055522867
  0.6902324365643761  0.9815989316001180  0.7448032835394770
  0.2702288727301719  0.7085050821714646  0.2432328602996899
  0.0124954922334806  0.8429701472783842  0.8930676547414006
  1.0075870914090028  0.1128936796824023  0.7659960624278739
  0.3776254141977274  0.4450082070058060  0.4702449936741026
  0.1653723418234078  0.5717181774965703  0.7422664392534621
  0.9836997954364284  0.1245760337364490  0.1621438831439512
  0.7091526655359708  0.9241982156470608  0.2083041393702710
  0.5832509369319189  0.4349367088314062  0.6293062603640156
  0.4912007015076930  0.9853903729648459  0.5883942477645852
  0.9977663237800259  0.0409979027946609  0.1155407888796107
  0.5819149927966858  0.0393904484530205  0.3109767530092286
  0.7478867782685751  0.0903011644315281  0.8232973156704484
  0.9097141544182101  0.8531322988124527  0.4476762070289056
  0.6531155051795766  0.8499855024200534  0.5050402062937674
  0.6996720845940394  0.4006197781411162  0.9292225702441416
  0.7593227004456543  0.4259144111861419  0.0552806468332815
  0.6351444064287038  0.3736972715399001  0.3537814250983893
  0.9282999112293117  0.2643310055031709  0.8909228385731430
  0.3745315035513501  0.2505360582822687  0.5120545383195101
  0.6799343099238309  0.6385644324319774  0.2065710749613545
  0.7201635851060207  0.2358673158358756  0.6364890170611759
  0.2292906106602642  0.5908308406914119  0.0416447165180408
  0.4875164848694735  0.1744246213236646  0.3175109415651802
  0.7963122133834153  0.3511901098071885  0.0624369846792101
  0.5779676530915974  0.9619672686215156  0.5831887167391447
  0.0720760370618824  0.2880257031148280  0.9537940157340262
  0.5849723418276876  0.5497409342475789  0.5123860497580783
  0.9495992170954700  0.8524571358474079  0.9661312256007220
  0.7348353716069070  0.8255174605442696  0.9234090515403445
  0.9896112676623899  0.7875723363702667  0.7501804503522100
  0.1751646654083374  0.4491972312531986  0.0671939109898986
  0.2669053800666291  0.6889911532372753  0.8953107347639166
  0.4730289048326658  0.5436223576874305  0.6312768761814044
  0.3327188241755926  0.6519665629727663  0.1933859258595967
  0.8270902135534776  0.9283602422129014  0.4139080449879487
  0.4670561993692152  0.4148710780627312  0.4636628475568609
  0.4289955583295676  0.6889622339078247  0.3922895695960554
  0.8618988822717289  0.2662690024500977  0.7464479878458634
  0.2703045265328952  0.3635560578553149  0.5056822712748119
  0.7306524929983071  0.3312580559344417  0.0350326414520871
  0.8894563121520102  0.8654196981214139  0.3067253469844517
  0.3430283970023901  0.8610252376385691  0.7086656034258391
  0.0632079954528428  0.7464065952307568  0.7214461244912965
  0.8898078599813711  0.3887508939563996  0.2958594764222464
  0.1204237648327585  0.0533957667957475  0.8803343132194755
  0.2776556109203626  0.4638263711217538  0.5826914658378943
  0.7616827888177812  0.4525744015919614  0.7211946276356123
  0.6378123278113675  0.6766600078567907  0.9237771335669392
  0.6070315716955167  0.6475518093841010  0.8393837272225848
  0.2080715901512219  0.1259827815238130  0.6135346845658650
  1.0032146025117863  0.8719337416852554  0.2050439279760331
  0.4222937164229038  0.7699906706302474  0.0128075838186944
  0.4639696110981266  0.8791663199183435  0.8441827352311830
  0.0322568368253227  0.6630076577316540  0.2386648825233601
  0.1488651464398984  0.9962578860035487  0.8191905262546684
  0.3294921569222253  0.5112505064825323  0.6161724056157740
  0.2607751627427475  0.6681512856557064  0.8054950268860754
  0.3788963330022790  0.9246831430227014  0.8435541357499592
  0.7502093847371828  0.7933077843246343  0.2027166983860775
  0.2190247218827510  0.5036648675051892  0.0274021824639261
  0.0547518126597758  0.4607905058910092  0.7473830365818313
  0.8011357691783376  0.2743069346638719  0.0413065753818197
  0.1104501128112136  0.1227252300491214  0.1550377253343461
  0.2211462346653306  0.7865696428831203  0.1053296100248338
  0.1150679184868198  0.4260620045745003  0.9845855874851225
  0.0958075172837006  0.8336458704595779  0.8337623727479452
  0.7464608408664246  0.3719349384354518  0.5002361416207173
  0.5695668110626506  0.4179271595725543  0.7725275959422530
  0.6311183773253909  0.5065446329295462  0.2849465502950003
  0.5520211796370000  0.5672675134533243  0.3637838583985886
  0.5752439544871651  0.4477188713247445  0.3482847998409774
  0.3513375640711776  0.6994976340454796  0.3725473518092752
  0.1733458260213207  0.1395206405593518  0.4581480173119340
  0.7053468966003907  0.6824790417693424  0.9637563110325472
  0.3728901061043237  0.4472641004075031  0.8682161763846004
  0.8886036952096080  0.5759075190607826  0.0610562163886850
  0.1174189392261277  0.3592010458243879  0.3324143635423874
  0.0741994530006631  0.8721830726999198  0.2489266386206845
  0.0420133231059984  0.0558125545968967  0.5126944127748204
  0.8819315547273261  0.7002110902879459  1.0067469567455603
  0.7551994664827063  0.4411613366585738  0.5471377971138015
  0.5976223571225625  0.3591379785007568  0.8270284694421659
  0.2451281462340190  0.0601366053299663  0.1153924109724891
  0.8073150263551390  0.3368987776065081  0.7324969309887762
  0.3504273600439901  0.1045959209589318  0.5718297240462203
  0.5082566749579559  0.8033653147521258  0.7240605412889596
  0.0719349874156931  0.9032541950851524  0.7989418169696776
  0.4838716547140143  0.3293966999526394  0.4695867393304143
  0.6345994102514255  0.7134725768958750  0.7772531680665938
  0.2332749536684504  0.9334409043180637  0.5091485471747880
  0.1629705980866354  0.5519557676230196  0.0765185823810138
  0.1005742455043617  0.2349663134095971  0.6130697651216261
  0.8882510785102741  0.9407298055549853  0.8610372050326323
  0.6100777338396242  0.2788315525095081  0.9415018511874033
  0.0980832190688361  0.2480754512338230  0.2499938733541110
  0.4983665361422447  0.8135983868736568  0.1042489150669239
  0.4589663396292624  0.4502798928219736  0.9849830520398047
  0.6406897084627229  0.6965532674073155  0.5784285288218722
  0.6497092985491144  0.5005192607893785  0.5246026405957165
  0.5960039143786270  0.5047125320444247  0.4437728668922096
  0.2467302832992829  0.5943238760064784  0.8631914681573027
  0.1420689840260725  0.5036275956476024  0.8110186664256348
  0.4785619362308505  0.8174653591759039  0.4574819228534205
  0.1032811148891117  0.5483662334312287  0.2949148996814612
  0.1331023808915764  0.6283158366918518  0.0629835501481699
  0.9116942933804385  0.2425664979681776  0.0408335470421698
  0.3653928298523785  0.7238663985053702  0.5297100917005261
  0.3835577180947545  0.3631266820434821  0.0390576317817587
  0.3697163363321581  0.6720296336496067  0.4441714660704201
  0.7339385539663584  0.0362595520269256  0.8894392724557209
  0.6052764092288417  0.5972368738082586  0.8835724696440306
  0.2051232054283461  0.7442515206799419  0.2443261547254713
  0.9733716168074844  0.7215273447322531  0.5892744985640629
  0.9812158637108582  0.4657938380154463  0.1127350586579439
  0.5804357433519470  0.6857571398646647  0.5046848271713549
  0.0699425611069027  0.5233304018270561  0.6736689312388945
  0.9671796027250076  0.6305772924559160  0.7264037774612438
  0.0756764627237885  0.7254200613489675  0.0545564166072359
  0.4196695406062384  0.8041154223024845  0.5030948290783275
  0.8582063528797536  0.8397417673539642  0.7627084454619306
  0.7646203314903216  0.9016349235213873  0.5906046365255311
  0.1555679047769304  0.7837972128941806  0.1798886805793753
  0.0279563002923404  0.8876649183767537  0.8744710951576349
  0.7929043064860944  0.5114152651719955  0.5770290430616712
  0.0833531632372613  0.3377963638580842  0.0931566555165452
  0.3965427370855221  0.8973665723208633  0.0444864233599147
  0.0451838370224404  0.6665407267005737  0.7038820847594338
  0.9755572851399970  0.3182249897438987  0.3156723942519531
  0.8651319961374858  0.3398114034317954  0.6924958372726012
  0.3924002811395031  0.2741789185801627  0.0273923845387130
  0.3943671584087292  0.3459366307715524  0.4584279708886542
  0.7003410220970618  0.9263491160616436  0.2933526471885312
  1.0023453908446898  0.7167859055841157  0.7438129887654601
  0.8249206811857969  0.1637080296187260  0.9542214225476607
  0.5621034612423178  0.6208284895191467  0.5430659715283686
  0.6803369917328217  0.2123985765649267  0.8816008392413018
  0.9536950743851285  0.3747331511917604  0.6929512449349499
  0.5897170089176197  0.8994458152459598  0.3058534504546632
  0.6177986960985410  0.1811393081363944  0.0108808541629206
  0.8370696504103832  0.7975726741088229  0.1681102699436008
  0.0406787351954749  0.8828241088437697  0.1203389322343345
  0.6804743485520492  0.3173938582427794  0.3261490340395669
  0.1359753313986581  0.3281464160864613  0.6781761992979370
  0.6942139168123140  0.8482220290454106  0.1728885560436452
  0.0529089915770056  0.5542060831230479  0.5513204658585763
  0.6348395883403849  0.7114575072223541  0.2013537573541569
  0.5601523537655427  0.0270030227872750  0.1581540891482707
  0.1866068294238993  0.8054066032676404  0.4404456929873486
  0.0763024636136425  0.4856697336931676  0.0922297153800191
  0.1406534801480260  0.9587025723149734  0.7518187127636854
  0.0589130273440544  0.7295461984819015  0.3421604310853879
  0.4227494514971071  0.0162131476212675  0.9401069675971668
  0.1053502119940921  0.4088422460335389  0.1017671610974681
  0.0693146530897020  0.9836569152879040  0.8182932639750360
  0.1978876744344245  0.3045834597137859  0.3423810292865349
  0.9619610788144650  0.3986120449381946  0.2754035200589182
  0.1560546192273771  0.9509631184138330  0.5253378637106336
  0.8901156433911149  0.1716550193096169  0.2522251052952154
  0.5860954253438592  0.2100665667695036  0.4696409597892512
  0.8899030788435989  0.3822650548940041  0.5347822504121921
  0.7173201063931511  0.9068222349546349  0.5121998748654926
  0.3077691718608279  0.2105684262099805  0.1836795591708389
  0.7129350600976662  0.1754191834768683  0.8262185231878930
  0.4823180390905586  0.5887673412535575  0.7041436685691683
  0.9899539263597218  0.9561774745660213  0.1228326245157065
  0.0779485909903483  0.3585328306864906  0.9459352975065182
  0.2767384790700638  0.1351181309864398  0.5723252486360750
  0.1619783529112021  0.2515289061104931  0.2101317276930224
  0.3605084184914537  0.1272779849068999  0.9723691221883500
  0.1439630736666207  0.3359383219350647  0.5576456922563978
  0.1678654294024336  0.2433462215152517  0.5599127439915341
  0.2629334796104770  0.4321202080600002  0.7296325964366761
  0.1479863784828905  0.5926883347064976  0.5492954625185759
  0.7806734678748065  0.2500793993624065  0.4139821479004259
  0.2160845477091608  0.7185417866954953  0.7328183788190936
  0.2456950470064841  0.3130185014223856  0.2565568436424113
  0.8104574748446666  0.9147628801361547  0.8277205449468575
  0.6239334565704254  0.3922559343442571  0.7022139734204227
  0.2162507007297491  0.4659914329752838  0.3708873239258595
  0.4073819712703833  0.2476358998856360  0.2632535917608160
  0.3135195132038942  0.9896707365693442  0.6134588449485178
  0.1838994092878340  0.1892675152611007  0.9621571859814991
  0.6637453739603127  0.5627316614998794  0.5702684048794685
  0.9849239545440283  0.3855660460189148  0.5038222809996989
  0.4821783536419762  0.7670864376473123  0.3772473238214086
  0.5750914737275087  0.2904462841446188  0.4688624390798342
  0.1637579782718252  0.9971486216695608  0.6702306644674402
  0.4553608453760499  0.1848838217025460  0.2429391418997918
  0.6771731774509192  0.4397515483664490  1.0062464358471670
  0.5574419568838939  0.3944773246397406  0.8890420552932051
  0.6866007337690375  0.7708999346190020  0.5934245680201538
  0.4130208577376747  0.8385450277555901  0.7012897450523508
  0.3219075376266474  0.3214658684037482  0.3019731208055552
  0.9378446739127144  0.3140979440295575  0.5037912161246662
  0.6556720584623247  0.7885215110371412  0.2135067786902763
  0.5441437896601167  0.1076874748773735  0.5246827737960916
  0.5446618743088703  0.9559577721943425  0.2078278659374514
  0.1122550514445786  0.8182803552101744  0.7434568158422217
  0.1846333546896549  0.3837013722958544  0.7013668134507079
  0.7260853855355798  0.0812715309048386  0.9764575316691104
  0.1957929446924674  0.4488806974927774  0.4395810622534783
  0.5485632821758579  0.1160061636262108  0.3297137436615298
  0.6508919566003939  0.5644925166121633  0.7576244144874041
  0.9685045124504973  0.3117531261312162  0.4142758317963735
  0.0701178036544234  0.2549041782915981  0.6762750829708486
  0.8493483608418657  0.9193745896965194  0.5623584447395923
  0.3298327924781983  0.0598323566772385  0.1402530271797125
  0.7886738227728384  0.9410785300745959  0.2706658699019572
  0.8358434205976405  0.7502518545877979  0.7493885668712513
  0.4265075377154020  0.0930899991310563  0.9934493069729734
  0.7385158250520361  0.1842839403349599  0.6948984657123584
  0.2836465640239457  0.2226907973890557  0.3986633280634198
  0.7166031552714553  0.5196759283247703  0.7341216326407052
  0.7542277750990665  0.3761370056584688  0.7802356941479303
  0.3957175762657912  0.5166751796305477  0.8289478596299618
  0.5154976500546383  0.0833286416065345  0.0314429267521534
  0.8781431274421759  0.9080544567829619  0.7809359142566672
  0.9468912573060922  0.5797130769521344  0.2003705885452368
  0.1779374800846680  0.8483273631612556  0.5099654082909034
  0.0420945524694777  0.0401075920622793  0.7440921372325288
  0.1359423471568847  0.1492552455951085  0.6075329646819855
  0.0880650723681778  0.9169776294305324  0.4232876732132930
  0.1043834850858256  0.0849990535011998  0.6641115859116977
  0.8990564264719183  0.5249086480847226  0.2194035119059761
  0.8394755288559765  0.4827845861244648  0.7013938885108925
  0.7070775996993989  0.6368491505110434  0.5823101199345875
  0.5680589811350378  0.2590932572620938  0.0476868082316379
  0.6213905221409396  0.4265785995084271  0.4225869893860065
  0.5589020986520771  0.5183348277641188  0.2988830765518072
  0.0085215330138085  0.0368173273812878  0.3128600102772399
  0.0740360865935960  0.2110342547986607  0.3971414163836728
  0.3988297829502848  0.1879380155221969  0.3176719700898155
  0.4998229750832883  0.1139077168573434  0.2672956734258810
  0.9439607754232978  0.8779780665799266  0.8231500176326653
  0.2126208894871859  0.3452253882400947  0.7656759948248735
  0.7544275114837034  0.9171246741314097  0.3493032457585192
  0.0356833893518312  0.9586558587337808  0.2746861525963497
  0.8752840977221441  0.3082636728876939  0.0108872324239277
  0.6913479557612898  0.1458930274248588  0.5548234631684912
  0.1906651490557315  0.1738300625377588  0.2048196967021925
  0.1516362595072751  0.5220388126293869  0.9034302680927163
  0.1100517875311867  0.4648054581844381  0.4654024683062335
  0.9930089391064103  0.5237744477996004  0.7136126986922254
  0.5196839225665703  0.0598506395476530  0.6029894106935879
  0.4874386274559449  0.4755666868120553  0.8241742537557974
  0.6898789125683044  0.8544203441552520  0.4178348254823360
  0.7357574839708052  0.5729443487459209  0.9841879877268775
  0.5994927933354987  0.6350938368720022  0.3730216784481880
  0.2913836801736526  0.3969013543005603  0.7904100186264167
  0.4164934375755613  0.5203405629288319  0.6901402275737362
  0.7744319824840672  0.7202055965285646  0.9467027346211151
  0.3840641497807117  0.1002826927375528  0.3958171061976283
  0.4942196458368086  0.8479679482957527  0.3084429052199020
  0.1274285236806140  0.4395953009147219  0.3824730564691472
  0.4610305032598075  0.4532475433880686  0.5364383424691826
  0.9717763726481757  0.5256220623449982  0.5330632167191237
  1.0083248704402721  0.0332981709045536  0.2173604106699837
  0.7215805584273883  0.8390260142337009  0.5625831970453533
  0.3239867759815511  0.2149381779239508  0.9827364914416312
  0.6737732795320076  0.6383598180629333  0.7809078032276391
  0.0691561732934953  0.6684832732072176  0.3958261757406404
  0.8355083634379299  0.4640410310360907  0.2937721538222836
  0.2436112954107685  0.0776045795821497  0.4298842774331126
  0.9706724325633450  0.6620517682068631  0.2302352566394633
  0.1584943721316628  0.8145338027887675  0.2446993652679783
  0.8108119765128871  0.2954832786806548  0.8778294763872659
  0.6516987984091852  0.4455013721339721  0.3381398008429340
  0.7190181198046716  0.1257749524081932  0.7549988528045902
  0.2041986750300005  0.7333286398586925  0.8123824120153894
  0.7307289101423695  0.0533489705295813  0.7591892002595074
  0.8502383169139602  0.5697826852774472  0.7305456456148264
  0.8729631597141695  0.6446897424101887  0.5537977853770707
  0.0698198374383896  0.1386741193145181  0.4303683591719974
  0.3391031404273699  0.3349454723173617  0.5193388063828301
  0.3501774120280473  0.8197020898695498  0.0398084803990563
  0.3726408575583608  0.7499484509009087  0.0823565087632195
  0.7032778436690283  0.7420684431445852  0.8934037427839542
  0.0664997782610156  0.1682332020802257  0.7916872531494579
  0.2769627919683282  0.7949002130170434  0.4495427138738664
  0.7770262446205781  0.7670406674969854  0.5653287240974090
  0.0190671079319612  0.9631121354127907  0.1664864222783670
  0.1293493699936418  0.2389615205056130  0.8156707802490021
  0.5608551306182861  0.8765042788707811  0.7175037461027575
  0.4050167109236174  0.4065010379111184  0.9342321791254384
  0.7854696354100545  0.9079045659928665  0.4942937386511407
  0.6781540508363546  0.6007799902300794  0.9164324052305477
  0.0997408035979636  0.1832501518388076  0.1956715891324682
  0.3198939617524439  0.4101688522211304  0.5327393326170370
  0.4272843714878711  0.7524450030481959  0.4532580094283701
  0.5307990347760165  0.1870096632468575  0.5371221267047080
  0.2544946331259824  0.9761093305980730  0.6804865118266133
  0.8383975079189703  0.8525841850690075  0.4605631927974095
  0.3218383498702287  0.3055021006141304  0.9827695109469247
  0.2004025215570227  0.6523331013433984  1.0071210636078343
  0.6138476760615887  0.3500081498063294  0.6288985281333729
  0.8105689397682109  0.8662793374069556  0.3159965951577917
  0.7266178523140826  0.7055804500321994  0.5494650658450820
  0.5030811983515492  0.3845965184918493  0.9535471128039741
  0.4499287564087848  0.8402900626931207  0.7728350372472608
  0.6442657860115436  0.1139135437956558  0.9603191531494040
  0.6308125820631473  0.2954585002578815  0.6904478548945627
  0.0571109966707441  0.6395684675969070  0.0254503194170282
  0.8545873891291063  0.2457668231906916  0.9824757114754074
  0.3390194695385983  0.2028740702318257  0.5755141884837321
  0.3030929986768684  0.7366930717778797  0.1805795414891687
  0.2948999180784004  0.9043308832800647  0.7635708998878946
  0.0814755669089846  0.1792670686616388  0.6776023902332147
  0.6240767478538701  0.1843880189811481  0.9362725532207309
  0.8433332144575247  0.4473080646248377  0.0243037551740585
  0.1525963781851034  0.2770776513177479  0.7526458278459112
  0.3437527484601187  0.0547769660682630  0.9131377080928151
  0.8403241316024141  0.7246645349508825  0.9886177527312368
  0.0896423649585975  0.6002362606757177  0.4808490058626698
  0.7994637517092426  0.8261791616233788  0.8151901565515881
  0.7428809573994867  0.8629610999468484  0.2546015932344997
  0.0240674572379477  0.5443583710423271  0.3205025166982931
  0.3663216507320253  0.4696551498137181  0.6823574135465552
  0.2555873766687086  0.2527851859629262  0.3186816269816586
  0.2364528920387194  0.7713246994502577  0.1837385033719826
  0.2126056298318375  0.9594729125277398  0.8110750631057247
  0.6054573303802679  0.2847833067135861  0.8241411030229581
  0.4336966743909583  0.9658731327623939  0.3912089063162026
  0.7873771701550547  0.5183914054077485  0.7511257814621993
  0.0646161721832344  0.0404854081613405  0.1509901277921085
  0.5758320919314547  0.3397760375966483  0.5497199841558440
  0.3472292603964869  0.7081056326805629  0.2613929104039803
  1.0034511039812053  0.7347316492773522  0.2650357560757346
  0.2467551479587578  0.7703529128291519  0.3117353063019794
  0.5688343291382517  0.3238968940295839  0.8918241661033374
  0.1426538993000351  0.5409778643437813  0.4364492968597248
  0.1283517378911862  0.5012560868802352  0.0117845566825385
  0.0536478859306022  0.9853803639295841  0.3715389988138503
  0.6511103069803496  0.7789918953635533  0.4498493890200396
  0.9870728314172632  0.6447906620059495  0.5036842697880514
  0.2380439193997250  0.3159083024525027  0.5664134341144302
  0.8899395300200741  0.8046843487447398  0.2477954704294763
  0.4375204171206281  0.7450483046262757  0.1136462162499016
  0.8588778120305293  0.8504122718977308  0.3697956221213213
  0.7079101553470949  0.4729407734418838  0.8724653382335834
  0.6704959510457443  0.7208932687265560  0.2586501834614976
  0.7668069980214663  0.7655825450350858  0.7941183817417370
  0.8761768839345060  0.3186810754871322  0.4300239723696732
  0.8765945910415492  0.2928721252871688  0.8335379675630594
  0.3192777886170726  0.9507267642807035  0.6923132162771899
  0.9593486159978437  0.3901653400954621  0.7584136182945242
  0.4208534298440575  0.1943281930911042  0.9899634454290145
  0.0376253949867813  0.4186718217148042  0.8936013752089508
  0.1886806407137136  0.2881735992823013  0.8308475001453823
  0.7261379987700578  0.9219393971752865  0.4387333825836621
  0.6920601233398861  0.0340330575334184  0.6792398150191231
  0.7605987718746802  0.6586248611160436  0.1837364372865864
  0.4039086650637643  0.0491923193467876  0.0805257851975158
  0.9410910158461501  0.8002582326326731  0.2997811951097101
  0.3122236298572151  0.8897235335859348  0.0471626117426299
  0.3633825849442139  0.9406553539135425  0.4539944873025657
  0.8561555238599180  0.5889772442207738  0.2198279749921874
  0.5952346369051167  0.5828046496154433  0.2735646686690459
  0.2470272434619582  0.2192582150332956  0.5663804748145737
  0.6296626776445809  0.7524911006121461  0.5178620052567512
  0.1297237054430952  0.6835453798125303  0.7271450800191406
  0.7292265009577588  0.3089491947541538  0.3882249760353446
  0.0985528851084428  0.5975762235497805  0.7219744248295135
  0.9639722276247626  0.7930952002353030  0.4467918267119635
  0.4599698446012852  0.3621533473247120  0.0326718954359216
  0.0843499827629085  0.1396521790339297  0.8517313908666164
  0.4424942432948457  0.0841576854852219  0.5811155293264653
  0.9497957435560561  0.3292563803536015  0.0658609114840344
  0.8331374631697722  0.4468192060062521  0.5348909831082008
  0.6664312671011501  0.0246459441532481  0.9368970387765211
  0.4033647482867984  0.0632755309744484  0.1757908938999008
  0.4807180187215030  0.2845384375685223  0.0294534929941873
  0.2191262565516135  0.3926129871312283  0.5699353861223471
  0.8879528390040049  0.4186439636740550  0.7180038755111913
  0.7225818118963591  0.8190443107691501  0.8310665969788938
  0.9134760787274360  0.4690512580832311  0.0576632315675512
  0.6460989039681411  0.5291371207697594  0.8958094775493333
  0.7563176801562849  0.5953761079471459  0.2317267984062516
  0.2591174909940824  0.6335122779822364  0.9485726091974528
  0.6687113162337248  0.5778084361415664  0.2657840993602121
  0.7062744296023565  0.3797145257023956  0.3455125808392902
  0.9375865435361694  0.3354937841817198  0.8256858805740108
  0.8259495943038860  0.3123256273161849  0.3785951464394176
  0.6798345523585061  0.2125241689849229  0.7469521623726993
  0.8551501028489261  0.2225262388158758  0.8889424997881215
  0.6875719112489818  0.3783933050949432  0.4340348228172307
  0.0259853593461360  0.5951614636947387  0.0766641305038810
  0.6325438169840907  0.9409017274059399  0.7381482234453299
  0.0787183191837487  0.4690252620839723  0.3348549968097058
  0.7746491216031124  0.6491894592159417  0.5597275336829616
  0.2595930603646696  0.8545332273084877  0.5244291176344631
  0.7983288721509443  0.8664489543591029  0.9028133573684402
  0.1282184503719171  0.6039751157472331  0.3969599907775156
  0.8692068810047682  0.8799315770499299  0.9250884127883942
  0.5431246084170315  0.0444904917097069  0.2449810331996418
  0.8124629479838027  0.5294198219659794  0.2427807434219265
  0.9524029645236260  0.4072560807824370  0.1083007587665966
  0.8954117030335921  0.3138685008564723  0.3504984013608660
  0.2888972607426850  0.7477046373786262  0.3959236144101613
  0.7320702456349146  0.5593654583456085  0.5587628498568161
  0.9806929373730634  0.4426605610031770  0.7020635851351859
  0.7477670569657145  0.3315627194574214  0.9288516208829967
  0.9551952863101515  0.1694866254280699  0.3055362027129259
  0.1267063254509059  0.5228544080504540  0.5250843355917704
  0.9116583869085435  0.4637461222552597  0.2743486312019093
  0.2107858730038808  0.9290184696833194  0.7336909811489518
  0.1581900763250674  0.5278314343407865  0.3623697657081132
  0.9306946384173344  0.7372549496903680  0.1977156188566037
  0.7494980211815918  0.1063289749589414  0.6882769636638063
  0.7323127033813067  0.5883156837722420  0.7534522443911811
  0.6060827772246867  0.6910047601834850  0.4327871494907807
  0.7399357510476413  0.4428533953790815  0.3055456368762752
  0.6300240249318837  0.7348976621280818  0.8542149477280259
  0.0166746216072752  0.4043976668341833  0.0972907917739944
  0.1968528652775179  0.2313029910126852  0.3775105162533166
  0.8813913872190845  0.3806352605187843  0.0611829542992897
  0.4529962857379091  0.0455596740562275  0.4053132777857086
  0.3295002529682075  0.8015661149671685  0.5028749410846372
  0.9412529733909482  0.7907565012404069  0.5454584971178256
  0.2045565816751462  0.8578732531616706  0.0557886364437539
  0.0790447350650255  0.9160118059570279  0.3323510397802837
  0.9896829378819563  0.7869069196134066  0.9803945695679664
  0.2999851485972154  0.9419705588935986  0.8398924889931451
  0.7894675444126936  0.3172629243604325  0.4665127834450314
  0.1556980573115481  0.8321531295384655  0.1149200597394337
  0.8834547235393694  0.8427849634807776  0.5131992975073737
  0.4613733255267136  0.5329418657478193  0.7729639058072004
  0.5993018122211923  0.0254650286174007  0.6091071779864230
  0.5273741890940848  0.9464397347423417  0.8708179189751408
  0.9498304366455155  0.2825146209319785  0.9814887207364721
  0.3454508084407281  0.7493139058346614  0.4544120243528256
  0.1054984365700919  0.9858405929169464  0.1394595618019091
  0.3361818585383962  0.4551138777114676  0.7993393830593837
  0.1403363919832976  0.7490231292386792  0.7713061378155937
  0.8780954230978202  0.5263987448508902  0.5493760893605870
  0.9990109456705800  0.3156487105729360  0.0704975859732370
  0.1728573799699869  0.1018358194705137  0.8669685421170187
  0.1008332008156633  0.2224805265974771  0.7389044702887024
  0.4146816247500776  0.6619853493017531  0.2410649024262480
  0.1703741460517957  0.9819087607125709  0.0903992728567931
  0.6220732294453063  0.1710491759114917  0.5345527997455114
  0.0761868055684722  0.0296715589101187  0.7063123386108630
  0.3437469868247439  0.1371535800515049  0.1920505521361671
  0.0525243780997225  0.4097008493222568  0.4450744175765427
  0.5837360301862098  0.0473261972179072  0.9529602256828467
  0.4497441934557226  0.7299076330309457  0.2355207243204183
  0.5769662316706281  0.6208133688752346  0.4680422920928608
  0.9844200233813536  0.1110229736024235  0.2667508920350734
  0.3209474926591179  0.2502071546492246  0.2488663713588534
  0.2615490079737952  0.2377797956876014  0.9669592080024938
  0.7337647710036369  0.1557033515017221  0.6260499857625157
  0.1800289288068114  0.8023909776157282  0.3236120485686686
  0.4550007636367616  0.9321956474912353  0.6469192810709468
  0.8023761591198579  0.3940116264489579  0.3294708985917429
  0.6767515443794311  0.2267220622166486  0.5596652710511173
  0.7476915000231646  0.6765150363784759  0.7646122718957727
  0.2735019556968920  0.1722632749540191  0.9702476391994601
  0.0134432753164573  0.0678164597881331  0.3960045808989778
  0.8323352312333189  0.8586149456983473  0.2240571584913734
  0.4787959367299388  0.8929864526562477  0.1129144714782997
  0.1431855036078118  0.7866220288126353  0.8512548733225872
  0.3707187531560458  0.4821725837110037  0.5446929274834373
  0.1934957675159160  0.6899728238139515  0.9357903935968995
  0.3368218049274911  0.2399560091034519  0.3304286401344348
  0.5408709119680831  0.9191482252679243  0.6575136897360664
  0.6872664272621428  0.4345889932961547  0.4915536450801377
  0.3179373451554773  0.4027028464811174  0.8700728444327364
  0.6950224643880432  0.1160853698187148  0.8876652535524601
  0.7276656810146889  0.5202837110615119  0.2759267486368215
  0.4356752272856038  0.8990626771708173  0.4386959686536815
  0.2455213492295230  0.9498660697836611  0.0652781873979106
  0.4421900468437158  0.2199265813398684  0.5214087021859359
  0.5062287432910957  0.5052147108246154  0.7092099896955500
  0.3892439593035250  0.9743568352495697  0.6553515901487711
  0.7811259631823473  0.9660969129996857  0.6401936635745227
