(written by ASE)

3265 atoms
2 atom types

0.0                      48  xlo xhi
0.0                      48  ylo yhi
0.0                      48  zlo zhi
                      0                       0                       0  xy xz yz

Masses

     1       78.97099997968516 # Se
     2      114.81799997046372 # In

Atoms # atomic

     1   2      17.258062207021339      10.431960024675888      37.504069756837012
     2   2      14.362382035579175      7.7305509863140944      36.230333725908629
     3   2      21.333864766264437      9.3772373469058312      37.491955639719066
     4   2      19.264944317656454      9.0634082075253222      34.388036931959874
     5   2      22.432489989333028      12.023828013506261      34.596449071032787
     6   2      15.461007258647779      10.377141652914524      33.334827157222342
     7   2      22.244218561015451      5.1457130467784156      37.818198003428535
     8   2      10.804259420764829      47.299777483704517      13.510064271485932
     9   2      15.272735830330195      3.4990266861866735       36.55657608961809
    10   2      14.591945338325218      9.6843361379000878       40.32238329167825
    11   2      14.613659347290239      44.841610775049688      13.263317380831911
    12   2      19.348538389573285      2.4443040084166228      36.544461972500152
    13   2      15.587522546206504      5.7190126464353757      39.554191314760928
    14   2      11.566969612040086      44.437411911352122      10.589428310150137
    15   2      17.572848922897649      12.651945984924584      40.501684981979849
    16   2       21.10189979050979      14.171663407240722      31.834282365652495
    17   2      41.603959445405266      30.816520198329346      17.635368613722679
    18   2     0.99111355752415675      26.143250434152016      41.006185864656985
    19   2      44.725869409777815      23.673589748228128      41.660630890879148
    20   2       21.56342806901047      11.331022498491826      41.584005205488701
    21   2      21.250270694347599      15.996341546014538      35.335530599178796
    22   2      20.447163612641884      5.0908946750170507      33.648955403813858
    23   2      47.923025404615437      24.765132519424682      43.273069980920226
    24   2      24.229544937706589      12.078646385267625      38.765691670647456
    25   2      22.559005276891753      7.3656990070271142      40.815813228571372
    26   2      27.418646343327136      6.7375810356087928      34.910577317624309
    27   2      26.320021120258545      4.0909903690083604      37.806083886310589
    28   2      18.342411740497699      44.980151692952703      13.564056583980733
    29   2      24.251100671650562      3.7771612296278496      34.702165178551397
    30   2      9.7345859194066122      2.0085658949961793       15.44759307572599
    31   2      46.156104918595105      30.577209339373844      39.871974222480219
    32   2      14.573340258969369      42.404497489189417      9.6716993843692407
    33   2      11.518994487148483      44.309856565524647      15.991937986209772
    34   2      25.267155404488584      12.950412223859329      31.821279984170705
    35   2        12.7889316912275     0.10320681866095199      9.1273544738854611
    36   2      10.286579476336085       8.785273664084146      36.242447843026568
    37   2      16.347708412270318       14.66348432480331      37.177827393127558
    38   2      41.479150744114143      25.025071484483377      39.604518039610326
    39   2      12.293461586971196      7.4167218469335783       33.12641501814943
    40   2      18.980123880527803      41.980634390891055      10.679466030382253
    41   2      26.236427048341707      10.710094568117059      35.649658845770318
    42   2      41.950814528578924      29.068046620617096      40.679938331332366
    43   2      39.847775827813557      27.886628526936946      19.166637953511746
    44   2      18.295672673803324      11.303725863267591      30.559658070360257
    45   2      44.814919411761963      24.815995363473952      45.711770568571083
    46   2      26.088056144503899      8.8854164293432554      32.148410612244014
    47   2      37.499437239501212      31.004188691227348      18.553209111185325
    48   2      19.578101692319329      4.3980891600026117      40.636511538269772
    49   2      35.529839316402601      34.038252867046914       20.14228129728232
    50   2      44.611745223555616      26.883776620724323      38.741272754603749
    51   2      14.278787963662346      14.349655185422794      34.073908685368359
    52   2      44.359646332428383      31.423749866635497      20.933616318896277
    53   2      15.925778108706913      43.885993467226285      16.999704632222784
    54   2       8.979531764702088      2.5613735273157889      9.3741013645394844
    55   2      19.116573413818646      7.2387300687515141      30.886788698433566
    56   2      2.1528594700830244      26.936113631913646      45.112606718503358
    57   2      43.181509714738326       19.98015702957861       40.52992942300267
    58   2      6.6878961841564557      1.6043670312986209      12.773704005044216
    59   2      14.130417059824538      12.524977046648985      30.572660451842047
    60   2      40.993702203929374      34.714778203815698      15.389034711755126
    61   2      20.280999050494469      18.236659201756805      31.507151737579186
    62   2      40.520579019761627      22.164427029471376       42.46859499973128
    63   2      42.704959499729831      27.395934237309778      22.219582157342892
    64   2      40.482761479101612      24.560445463533213      21.202197552093974
    65   2      19.797484255084271     0.32649140599585919      12.566656202831872
    66   2      13.463338312614074       2.147106812899195      15.748332278874816
    67   2      46.707984920740728      28.306189702345094      21.547045161222698
    68   2      19.385744671764634      12.995497248303057      44.133603388084346
    69   2      35.844750406802667      26.976373061901629      19.839174949631939
    70   2      8.5126238402192023      46.342770987687352      16.909666911990669
    71   2      43.681186781960612      34.206481921371932      18.523383896883175
    72   2      17.279617940965306      2.1304748690361075      33.440543264740953
    73   2      13.858605192585715      45.394418407369287      7.1898256696454022
    74   2      44.743101941350396       24.37959081971853      20.391168213442743
    75   2      42.963300127027978      31.680714027996128      13.799962525658131
    76   2      36.140096557878493      30.139994861560567      22.388615199249873
    77   2      23.319191142955574      16.310170685395047      38.439449306938002
    78   2       46.24515492057926      31.719614954619672      43.923113900172169
    79   2      7.5416084467121607      44.742510048029146       10.04292336944123
    80   2      43.112560441137788      29.860909818378726      44.786359185178739
    81   2      17.233937116432806      47.367635517277108      37.549755107652551
    82   2      46.359279106801466       28.50942808212347       46.84247203644756
    83   2      17.446333635338917      17.310074991403738      34.282320824441271
    84   2      36.820977689033441      33.786920745963783      16.142976689172226
    85   2      19.243388583712481      17.364893363165102      38.451563424055941
    86   2      26.549584423004582      6.0447755205943539      41.898133452080216
    87   2      38.217323894433832      33.529956584603156      23.276630482410365
    88   2      23.281829027797443      6.0174788853701182      30.873786316951776
    89   2      1.9496852818766737      29.003894889164016       38.14210890453603
    90   2      47.415287058455213      20.636529921069595      42.033026035647211
    91   2      12.606618961634075      2.7514027994108736      39.374889624459328
    92   2      5.9251859928812012      4.4667326036510158      15.694339966380014
    93   2      22.527903096804625         16.808150310662      28.423960275912986
    94   2      40.048915235296853      18.121451893337664      41.393174708009248
    95   2      2.4213490663414512      33.046870025297736      39.217529196258063
    96   2      24.057048943280257      47.189643739095047      35.310128787936691
    97   2      37.809730533790514      25.032418685553218      42.278521922340488
    98   2      7.3908993048939209      6.0838646257223523      34.968711812098185
    99   2       41.30861329432944      27.652898398670409      15.085928364104751
   100   2      5.2854539495244959      28.794818768154592      44.249361433496787
   101   2      19.536346972112092      38.955871853641753      13.350928644793093
   102   2      39.239966042607811      31.936038276698937      40.489865253941574
   103   2      35.652315650425521      37.197479131929114      22.511773306738895
   104   2      42.390048409329765      34.457814042455063      22.522688504993273
   105   2      4.6028634035731821      5.5882305825796754      12.144168552580703
   106   2      8.6160398155212476      4.0723262858436335      38.292569400950484
   107   2      16.256546801462779      38.871128184209859      10.212366118995508
   108   2      12.377055658888032     0.79761764782487998        35.2828400586897
   109   2      39.397223385722768      28.909869269882087      43.412589839471551
   110   2      10.601366192212392      11.005259624332849      39.240063068169405
   111   2      19.457546457496502      14.007068969248845      28.245546849975234
   112   2      14.874796630262416      6.2122303274037947      12.479044938870686
   113   2      13.202201029641895      40.776487260545089      16.532604720836044
   114   2      17.400418295073489      6.0625639098138429      43.186109720865417
   115   2        29.2157012917007      6.7923994073701541      39.079819917238979
   116   2      45.311638715340337      28.563153863705725      14.413391367984556
   117   2      24.544331653582901      14.298632345516328      41.763306895790301
   118   2      5.1964039475403601      27.652413152908768      40.198221755804845
   119   2      6.6399210592648554      1.4768116854711359      18.176213681103857
   120   2      20.393287498884099      8.9233114127434181      44.489844464928964
   121   2      21.601673408101902      42.771788997955028      13.231852725301181
   122   2      27.514059450798737      11.521903332764531      28.738088522504505
   123   2      13.475680881956636      3.4442083144253131      32.387333490003414
   124   2      38.346610813388864      37.255986656658465      14.648495156146424
   125   2      30.253311758482688      7.6641652459618612      32.135408230762224
   126   2      43.295633900960524      16.769970157082408      43.449287559278062
   127   2      41.682324932320498       22.95729022723301      46.575015853577668
   128   2     0.72262396126573436      20.032494040767929      46.901263386902286
   129   2      34.601814600423097      26.450669069487194      40.459727909582654
   130   2      39.742957018789255      36.999022495297837       21.78214894938457
   131   2       31.07421249849801      3.5991694514457837      32.462538858835536
   132   2      12.414261941079374      11.348810887711315      42.871981474273902
   133   2      17.668005119111122      42.936251698714457      6.9430787789913797
   134   2      37.882892848423232      23.960029644310382      18.010761005731791
   135   2      8.4895245279625211      8.7304552923227856      32.073205243411891
   136   2      5.7168807906494212   0.0041060916404256007      5.9069604624947756
   137   2      11.780131770120658      5.6804761178787553      15.207665544248549
   138   2      46.492789895798147       17.86151292827897      45.061726649319148
   139   2      11.559313575469353      46.746969851384918      19.583555982672443
   140   2      1.4792136810513359      24.855333151766786      19.151502293722309
   141   2      11.065396703737003      8.6703970360586258      12.725791829524708
   142   2      27.545161630885865      2.0794520291296417      41.129941475162894
   143   2      37.763813688699116      24.074030935986737      38.230748693903124
   144   2      3.8552184407072065      21.891199177008879      46.038018101895702
   145   2       22.37861387557524      15.856244751232632      45.437338132147893
   146   2      13.421804768198847      7.2766250521516804       43.22822255111852
   147   2      45.946624366628384      25.236970800301997      16.448950966566787
   148   2      16.482001200291208      40.861230929976983       19.67116724663363
   149   2      16.461462697246095      38.568124565547414      16.200400862156485
   150   2       34.25596944502513      37.454443293289742      15.378119513500756
   151   2      13.309516319809216      16.589972841165064      30.245529823768742
   152   2      24.371901025758739      7.7092502704055805      44.447731634675861
   153   2      47.332835520121122      21.284182126853338      20.945253089319348
   154   2      34.743750352478102      30.396959022921198      15.254961406011731
   155   2      24.443702811490613      8.7208219913513663      28.559675096566753
   156   2      2.6245232545478014      30.979088768047358      46.188027010225397
   157   2      25.387639142103495      45.041808345360586      38.072295493316979
   158   2      33.622552386174448      24.140884288125065      18.821790344383025
   159   2      7.6204626076399631      8.0376497773083457      39.060761377867813
   160   2      8.7183944817299093      41.190753974961673      10.158373806500707
   161   2      31.222583402335818      5.4238475902195873      35.963787092361841
   162   2      11.828106895012262      5.8080314637062305      9.8051558681889119
   163   2      19.515808469066982      36.662765489212184      9.8801622603159558
   164   2      3.5830949789003137      33.839733223059355      43.323950050104443
   165   2      7.8027457296843412      6.1131296003832674      9.2586509274800051
   166   2      32.035574351974439      30.327663354458569      23.306455696712511
   167   2      26.429029188181755      15.653755329840582      29.507168763785682
   168   2       8.301253099644935      1.8523403255949362      35.294954175807632
   169   2      12.527794408255321      38.732587266306837      9.9116269158466839
   170   2      42.909386252931434      31.928691075629096      37.815861371211405
   171   2      32.882747925862091      36.579461319889688      19.401741741673618
   172   2      42.153988716785278      27.000265363366722        47.6504361452997
   173   2      32.987566734886393      27.467067351528797      16.786230745800793
   174   2      5.3995781357467054      25.584631895658397      47.168719569772179
   175   2      37.966987876905478      22.006249678736374      45.201246507870465
   176   2      28.305347496949686      11.023923707497575      38.753577553529524
   177   2      16.577271715016362      16.617269476389296      41.269876958897186
   178   2      7.3264612334220054      45.211414317040813      4.2410851559892624
   179   2      31.357114801506665      33.110395409195007      20.896223274699413
   180   2      28.222304557259044      45.968392555713649      35.297126406454893
   181   2      4.2721154616011185      47.116773393376036      10.561323757829793
   182   2      24.102729767812757      1.9524830908540416      31.200916945025089
   183   2      41.116178537952294      37.874004468697891      17.758526721211709
   184   2      21.442872834187646      20.940002307738059      29.193040517194163
   185   2      2.1141993323393904       21.52915008836306      21.187061892304545
   186   2      40.827458894540058        35.8134888610278      41.623933171072622
   187   2      18.416156411418243      43.395121984768842      36.810673579506535
   188   2      43.000305650805664      30.559556036968715      24.769022406960822
   189   2      43.381050037396214      35.971666211762809      38.891281662933437
   190   2      15.407131144889989       14.20955839064089      44.175716218337449
   191   2      14.834477541941546      3.7751170415435231      8.8874269424080161
   192   2      40.472626427193951       20.86462095144519      18.564845881608395
   193   2      5.0822797613181452      30.862600025404966      37.278863619529453
   194   2      46.289615707591793      19.929294185529344      38.091228835351806
   195   2      15.556420366119376       15.16146395007026      27.162338362102538
   196   2      10.595954218533048       42.83715097169393      3.7226847676006942
   197   2      30.639228146574048        30.5846275158192      16.172801903474372
   198   2      18.603549023469874      6.3507712453068095      12.779784142019508
   199   2       20.54257672011348      9.8752169721727867      27.476466608694057
   200   2      32.498179555471467      29.527326605023418      40.110409451895123
   201   2      43.092459712754177      18.837751414332786      36.478789745310721
   202   2      16.115743436515679      19.457910385138199      31.520154119060976
   203   2      21.622211911147012      45.064895362384597      16.702619109778318
   204   2      39.025669798218388      21.109139223444998      22.457339330907082
   205   2      23.087226167200932      21.104596745729943       32.78177603287142
   206   2      44.489532685745161      21.785664560213775      17.704092745379896
   207   2      13.839913169671998      37.776969958483434      13.648014167237559
   208   2      11.324189943118069      9.6570395026758487      29.298036156549813
   209   2      4.7483999578634499      8.0184886767184942      15.578889529320538
   210   2      1.7044581995388817       5.384741930770411      9.4668484242046649
   211   2      24.417816366024176      18.956761351995475      35.543942738251715
   212   2      9.3762256815850655      13.016797964211566      35.916205479317114
   213   2      43.384683902944673       17.91237577232824      47.500427236970012
   214   2      3.6520442525008558      23.958980434259246      39.067520287928375
   215   2      44.542795949955078      36.764529409524442       42.99770251677981
   216   2      34.383912940286784      27.210103190168166      23.919884539038932
   217   2      7.3960718924218938      42.312251953890339      6.6082023927013971
   218   2      20.328339377390162      38.228164830557006      16.936514010434955
   219   2      21.862810691074074      4.1424085503091339      12.447580283339953
   220   2       12.27190585302723      15.718207002573362       37.18994151024549
   221   2      8.3935599423779763      28.743955924105322      41.810660845845916
   222   2      2.6625350188285344       1.909465167975648      12.227199064335306
   223   2      41.280481895534919      17.542833422818202      20.780353720351982
   224   2      35.770619108179261      27.341922670706793      44.404891559132622
   225   2      39.090343510944336      15.260807438325667      44.257251668130209
   226   2      14.621315383860969      42.532052835016891      4.2691897083096046
   227   2      9.4734486364344335      40.637946342642067      16.231865517687222
   228   2      47.342970572028776      24.980006638941369      23.582604759804926
   229   2      28.984541313875496      26.556811886493481      17.458767741920987
   230   2      17.085566212595001      45.542957378503303      34.048506874126232
   231   2      2.4473878055383778       2.378369436987307      6.4253608508833393
   232   2      10.262454385747557      45.720949156685379      36.288133193842107
   233   2      16.310346297112179      4.3707925247783761      29.612164403141328
   234   2      47.789514615618756       35.41304767326919      45.053815368048639
   235   2      32.500215804792845      6.2356563548670572       29.05221676909602
   236   2      10.428935564388231      4.4158775492221061      41.924487807054973
   237   2      37.189840527171185      17.741290059449476      21.509978077706311
   238   2      21.396757512318587      43.074792616617472      7.2438179821402038
   239   2      16.894258941492886      35.871610882148204      7.3277755653970278
   240   2      36.091798716072333      40.822292457285265      16.325480766701528
   241   2      14.471390103502394      19.293315947146315      27.931418603383719
   242   2      19.241261163499978      3.3512539432451613      9.8951935884210283
   243   2      28.267985381791547     0.73123190747264644      31.187914563543298
   244   2      3.6335504123355742      3.5097261076338384      19.093942606884752
   245   2      4.3363973529676079      24.364638862139625      22.204446497553452
   246   2      43.584224225602568      33.903884954512435      45.861779476900779
   247   2      32.404802697321244      1.4513340577113216      35.224705564215824
   248   2      37.200854616996558      34.245542261852513      42.616234890733708
   249   2      3.2353972986430417      27.785224823159194      17.620232953933247
   250   2       34.13349311100221      34.295217028407549      13.008627504044174
   251   2      4.4872626748912747      46.647869124364377      16.363161971281762
   252   2      8.7737611231913775      7.7133905400414573      16.125394470029448
   253   2      19.462600228544659       15.05905496792888      47.645184312364634
   254   2      21.250821826573791      44.321706195121905      34.035504492644449
   255   2      42.284840576560214       34.46344608273256      11.389730103645034
   256   2      19.558175299588786      19.584879323413798      41.449178649198785
   257   2      32.419029960896452      23.283504307541605      22.764007591258981
   258   2      33.471238662921508      39.644284687156045      24.319887696168173
   259   2      37.488144921472724       40.56532829592463      23.459134559939667
   260   2      29.279887464951322      29.720433686152418      20.008207991538924
   261   2      23.548754445701615       18.26395583698104       42.53149887270763
   262   2      15.288065968676811      46.885510769287933      19.884295185821269
   263   2      46.041980732372906      33.787396211870046      36.952616086204827
   264   2      36.032050109240387      33.354288660632903      38.671071241183725
   265   2      18.016923211568773      37.127151413109132      20.215265038954168
   266   2      10.474850904653668      15.663388630811996      33.020698910630827
   267   2      6.6266394563576494      34.556032744054477      38.409565087405923
   268   2      45.077532987361003      33.949517760011304      25.657037690121317
   269   2       39.08641527370122      24.817409624893848      14.068543758855835
   270   2      47.586340427412409      37.480828930519557      38.083317554081304
   271   2      38.935101550448287      40.320810023924821       19.56664111064098
   272   2      22.220093470426914      42.081388539379645      37.863883354244066
   273   2      22.412695610266962      47.025049301103159      31.721393272259423
   274   2      42.512524743352685      37.617040307337263      24.892180514449844
   275   2      9.3160571050350427      31.518972916895947      38.781960232173986
   276   2      27.364770229569352       10.56999777333516      45.751466378739408
   277   2      29.530488007577013      9.0123853676188563      42.077435142381816
   278   2      31.415185542175866      10.367508351943108      29.821297010377201
   279   2      36.379495024973224      18.128799094407505      44.067178590739417
   280   2       38.89578344490161      30.747224529866717       25.68686290442346
   281   2      17.541746742810517      22.094397288559474      28.109832029321463
   282   2      18.547327636281015      44.677148074290258      19.552091327141714
   283   2      16.186915391679094       5.256613019580394      16.215432190261559
   284   2      47.212112870248859      22.704311178319969      35.062528221679869
   285   2      5.6351362309488193      1.1047164388191311      38.113267710648884
   286   2      12.145090683133393      5.5920437081597756      29.625166784623119
   287   2      13.407116925425207      40.473483641882645      22.520639463997021
   288   2      4.5332527445732973      8.4873929457301482      9.7770513158685706
   289   2      28.073382521195043      15.818349767832466      33.095904279462943
   290   2       7.657209175394069      3.6828715062444477      5.8239299507401725
   291   2      32.165460705291224       20.68957804803685       20.07693212319613
   292   2      7.3073052329770842       12.70296882483105      32.812286771557915
   293   2      18.407961122192958      1.9903780742542034      43.542350797710043
   294   2      22.451047540024593      14.744592591036174      24.912379351632701
   295   2      4.3417261206010078      44.217611030225562      12.928440994541928
   296   2      29.429859165484721      3.4345750134538946      28.873803343158276
   297   2      25.379443852878207      3.6370644348459455      44.803972711520487
   298   2      19.310892573283667      36.965769107874628      3.8921275171549778
   299   2      35.567444919972914      29.409703927957164      37.434393745165288
   300   2      38.887169322737989      17.328588695576038      37.286753854162868
   301   2      37.538755345047896      40.577774185285456      12.432987317402842
   302   2      18.472434013149957      15.958653733374007      24.954492181885801
   303   2      19.713550969825178      46.608161921597031      6.7031512475139357
   304   2      35.008763539667171      20.188095614676406      23.318092467135585
   305   2      38.451429622413166      28.143592688297577      12.032984160273607
   306   2      9.5192312932413898      29.451191659645581      45.752458046141314
   307   2      12.486063726811249      12.360382608657101       26.98392493616479
   308   2      30.065976428875828      33.361727530278138      24.895527882809503
   309   2      39.443140230814166       29.86825701944856      47.460363067908908
   310   2      40.670201551425102       38.83965786784465      38.701208585542645
   311   2      3.7661684387230654      20.748793561763051      41.986878424203766
   312   2      6.8298136445640001       32.48825148680411      45.380062901373257
   313   2      10.147855257821007      42.681846336880319      22.852843322676577
   314   2      8.4646487153275967      46.215215641859878      22.312176588050306
   315   2      21.371071048455772      19.928430586792274      45.081097055303275
   316   2      7.1589343291392815      10.878290686057248      29.311038538031603
   317   2       40.31740483155528       24.23220828672175      35.498097185763939
   318   2      22.386574649067597     0.77631693191637119       43.50023796745694
   319   2      41.751274205921035      13.076537438432894      42.318586091401592
   320   2      43.346755735950005      24.636554981079161      13.257514420204608
   321   2      17.472220080805354      7.0741356307596295      27.298053182756306
   322   2      34.340383599361971      20.438303079561081      46.193548227531551
   323   2      16.392243589236536      12.257973626515724      47.466770886426886
   324   2      25.528733074107592       4.588969994275315      27.790594855285576
   325   2      31.022683755496061      23.540468468902233      15.630353798020842
   326   2      16.920342480976462      9.8841405502863697      12.239117407393245
   327   2      37.629323592817997       21.36610338480563      15.323685537668942
   328   2      17.464891186030485      20.030839568933644      24.598251105041182
   329   2      5.6640487099090224      43.096113051296904      16.478612408341242
   330   2      42.257694403357348       42.71710845217352      39.835276502673707
   331   2      3.3150967456508305      7.1385873034924074      34.980825929216124
   332   2      9.4811046730051682      38.328388402609278      7.2377378451649097
   333   2      30.380887519275891       26.29984772513285      24.592421535159126
   334   2      34.420272802607755      17.123272247410053       18.39994651264103
   335   2      44.385037492151582      13.024001383693026     0.82423230446074069
   336   2      36.103091034100821       31.26115285258798      11.419555317947179
   337   2      47.853911296856545      35.134339379223846      17.769441919466082
   338   2      39.194049197516406      30.977650527132454      36.442092025504209
   339   2      29.403972720018288      13.670514374098003      35.858070984843224
   340   2      11.772740253550795       39.28539489862645      3.8381352046601762
   341   2      6.4503220375135921      5.6299386915599374      41.966600637308076
   342   2      3.8063054493450528      23.214801686961028      2.3249433535667325
   343   2      36.235224297446749      31.286507403382537      45.641569055151066
   344   2      38.631090125813849      41.149161852998226      40.827578222334779
   345   2      1.6445570848359936      2.4256399252518914       37.03094748714004
   346   2      9.4331295481135626      38.200833056781804      12.640247521224548
   347   2      6.4585173267388747      47.034682602074575      35.234923419104561
   348   2       33.61241733426678      20.445059776037038      16.184438673897443
   349   2      5.3219788562859458      5.7700354863418415      31.864793104338986
   350   2      23.458590367144062      10.672406755476533       25.26862042847732
   351   2      17.627686030790251      40.499138412854187      3.3514607825287053
   352   2      25.729687371218141      3.8024488153187281      13.183693431618426
   353   2       29.35805737975285      2.4230032925081137      44.761859881267384
   354   2      17.477273851853514      8.1261216294396732      46.697690645145698
   355   2      40.331447755848686      40.063845862564193      26.700294903879126
   356   2      2.5471233094849532      33.155481105265281     0.16389154039974721
   357   2      12.536282603277696      46.515916386297953      3.6396542558460911
   358   2      10.785567397851111      39.682329034818665      19.968252769078095
   359   2      39.719832332551903      38.130968630058518       10.62487292797357
   360   2      34.448404201402269      27.233337223262261      12.705521156393798
   361   2      45.206819906316028      37.675547832066613      17.028902363857384
   362   2      34.279094131262482      36.322497158529053      26.535395534911753
   363   2      26.762343293247277      23.721323112716917      16.441383136672073
   364   2      6.4069903201509266      20.794647910481146     0.33126743296650718
   365   2      18.333034788961463      21.596417663292517      38.125321060346486
   366   2      9.8886106687192559      12.222153109126104      12.610341392465234
   367   2      29.960768596106274      33.367359570555635      13.762569481461268
   368   2       24.44875658253877        9.77280799003141       47.95931255895615
   369   2      44.522695221571468      25.741371005478495      34.690133076911806
   370   2      42.653703414697958      18.417815396218259      16.756731492179121
   371   2      27.523703847359617      26.790542014760018       21.53947733132798
   372   2      39.279239053823623       23.70306548294975      25.144414798969937
   373   2      34.137209411155624      22.506084336811455      39.223050413564209
   374   2      23.157133922424574      41.330815845516746      17.246716902098861
   375   2      2.9400511475672158      24.621603023500256      15.070792704315316
   376   2      1.5485176317522957      7.4935896589149014      18.464407154421238
   377   2      13.913971834047182      11.917054972449073      13.156846333174137
   378   2        31.4864017204617      36.836425481250316      12.268087948435472
   379   2      16.264114340353487      21.282588523912008      35.021402352587288
   380   2      40.207613240004875      31.073484359689978      10.501714820484542
   381   2      31.535740776998693     0.75852854269688152      42.212261698671739
   382   2      29.897494684665595      31.947480381503304      42.104085372495348
   383   2      16.743138483263387      2.2318504823310819      18.886894804672401
   384   2      37.067364193148265      14.582063794567283      19.140486068249729
   385   2       8.255572275112435      47.089500973835946      39.404166018719238
   386   2        32.5801709622583      30.571341816811277      44.322806333883477
   387   2      10.308135210280057      0.4837885084443696      32.178921350930501
   388   2       12.48747531993445      36.295473980446573      6.3200089193840157
   389   2      36.345367971677568      43.416218716790013      19.012556234764382
   390   2      36.176320836766877      20.196580351657879      37.096680776772075
   391   2      27.437203894018705      9.4583456131387003      25.226507598224217
   392   2       3.379920790693963      35.907514480309736      36.353452236137109
   393   2      22.266325427185613      25.169592540246011      32.454645404798114
   394   2      17.450482033077179      32.846848344898909      9.9992381798078682
   395   2       23.23559707103874      22.929274884503744      36.283024266397732
   396   2      2.6251400571671519      31.683482828645534      15.373899051965694
   397   2      24.676557682967896      43.159536286049367      10.382380507937789
   398   2      1.2979934323025903      39.792312265708432      40.161524035998326
   399   2       9.743074114428989      9.7918950149872863      9.1756204157253993
   400   2      26.357227402449887      14.642183608894793      45.395225301894797
   401   2      27.184694090477052       45.09662671712195      42.241538092931648
   402   2      1.2503985896643408      15.603946360275058     0.17180282167025279
   403   2      8.0889957844240996      22.547572068499864      47.541114714540242
   404   2      39.754848771179496      14.073767512123517      22.274835253377773
   405   2      24.120334591383603      46.184298823298668      7.7109178935269469
   406   2      16.731971928732314      14.503450309799085     0.79761499526612156
   407   2      41.244122033213955      27.629664365576314      26.300291746749881
   408   2      36.536752368088187      15.102630087590654      46.989903176269394
   409   2      41.548100017714674      15.144318695683268      35.348088277434258
   410   2      34.804988788629458      24.382887812236824      47.430225723549988
   411   2      21.071268983389658      35.221792336773902      13.895026437113629
   412   2      4.6317435040434338      27.528260661798562      24.753886747171393
   413   2      26.472616977217641     0.79607632153562402        10.1422058582971
   414   2      33.291503850943798      5.7376767296001026       39.06770580012104
   415   2       42.07658877172242      29.176657700584641       1.626300675474043
   416   2      1.3743948720270336      33.967727120127677       21.76701328959513
   417   2      40.873375739631456      36.771876610594276      45.671706399509986
   418   2       12.49111749785941      13.412368607337143       46.38356239855419
   419   2      17.131247037127501      0.3057967302622992      29.939295031214638
   420   2      22.034469652348683      40.075275314555824      4.3592274285417218
   421   2      25.443916743835207      17.605340093965747      26.216114095696248
   422   2      46.457565091456146      35.391303540584474       10.63578812622794
   423   2      34.010406471075591      37.474961407956997      42.534149665484549
   424   2      32.074892457521116      39.901248848516673      17.186233902930027
   425   2      33.928415064288757      36.430946196169138      38.321752783496194
   426   2      28.534910799695727      12.977708859083563      42.845627119299152
   427   2      37.741714177077959      43.159254555429385      26.146210028002521
   428   2      15.582140180076205      36.827228189971606      3.5913883140061538
   429   2      37.665459806264039      38.190126994528256      43.852912386752145
   430   2      6.4267589011842805      40.233747478944508      13.557976447005448
   431   2      2.1040642804317264      17.833325576275026      18.549710221818962
   432   2      6.7156894583417861      35.698438359300312      42.460704765097859
   433   2       23.70345465941757      16.150136670390822      2.0592369090765645
   434   2      34.949021766277177      43.673182878150655      11.878902441526243
   435   2      20.213211359791799      43.449940356530213      40.979916179121204
   436   2      6.3745397945881734      21.348295444548381      20.376032553653314
   437   2      44.050049620098349      18.160851234857628       23.89038528541726
   438   2      18.242474438355245      32.119141321814162       13.58482354544973
   439   2      31.149935453441003      23.667722225665564      46.111463002282392
   440   2      45.014459734419859      40.807504545658148      44.073122808501857
   441   2      22.590692743932983      37.050512777306523      7.0306900429525632
   442   2      22.071722566589113       40.25671040060584      34.362635120717755
   443   2     0.91246579426081453      6.1124489538551572      5.8812630585628032
   444   2      36.926185521802992      33.781288705686286      27.275935090520456
   445   2      4.5947379802657675      28.649418652825972      13.784826865868698
   446   2      20.457760389841098      22.891587071863221      25.901985849104729
   447   2      19.431660012030068      24.243008329892952        35.2298144916602
   448   2      45.885878891145559      21.528700398853147      24.837746538618035
   449   2      37.606556345584167      27.100199942803588      35.308024108373147
   450   2      39.845741047090499      20.189233150588038      34.422676894041913
   451   2      15.248610739741661      40.434702178787902      36.602261440433622
   452   2      43.927573286075429      15.001624969975431      21.520893275960681
   453   2      14.396136261256292      34.752207421234139      16.319476781648405
   454   2      24.289013919034897      42.395217678760162      40.967802062003258
   455   2      40.779864051901811      11.625122955594422      1.6342119567445486
   456   2       9.420760858551283      10.611287265923986      46.205148972616442
   457   2      8.1903857541716203      30.811737181355692      34.840163031878589
   458   2      11.436478391507702     0.34369171366246559      42.280728883899592
   459   2      17.273993605569274      40.133523906892236      23.256752612275488
   460   2      7.8858215962177436      24.615353325750231      40.570616900572908
   461   2      30.430073097829318      12.319093116068276      26.530242342287764
   462   2      45.985051549637923      13.732910329923879      43.821682704046133
   463   2      23.418271205396756       2.701435397870851      16.462444460137633
   464   2      21.327126102534898      9.4602774519880093      13.246884053406255
   465   2      37.399634597241445      23.624519845694177      1.3588444926041472
   466   2      11.998733382627748      30.142834352203927      41.000681193562116
   467   2      32.376996774051946      32.639123074061644      37.352308519916136
   468   2      46.744344783061692      18.219358759586974      16.027107134824789
   469   2      43.810473700915637      37.932511993427241      9.8952485706192377
   470   2      21.228714960403622      24.297826701654312      39.399057091274869
   471   2     0.78793936931781128      28.211031691402386      34.035688050689643
   472   2      6.9633244335606772      21.840336332959609      43.599317514244845
   473   2     0.41941657420866718      4.4371782651306093      33.707089898287734
   474   2      30.188452762898748      36.520953795160338      27.265019892266082
   475   2      46.603166111716419      37.418583670705985      24.162556157095519
   476   2      45.936489314720724      21.541146288213969      13.811599296081205
   477   2      21.378399943230647       6.971726648618251      47.780899133018401
   478   2      35.018898591574839      23.883920126764437      25.955444137621168
   479   2      6.3380335891239596       14.94328648057332      28.983907909958297
   480   2      18.086533870568658      34.227989049958651      22.582382275666305
   481   2      36.333578179881826      17.170411344841028      40.019405362302052
   482   2      26.687764190507799     0.32717205252396964      15.944044071749069
   483   2       9.605788984331106       14.97058311579756      40.008255045086742
   484   2       4.021486262567544       31.42651866728491      22.507552845203833
   485   2      3.5629942505167151      22.816574819013418      35.016380610236425
   486   2      27.252481781179725      19.883345562348545      32.768773651389637
   487   2      34.131589252495104      34.363164938918757      45.292250597463536
   488   2      5.9910841856661596      28.392454491465337      20.918480659106837
   489   2      39.101993567865634      18.579605390789411      2.2842558759964944
   490   2      20.722551074845143      13.182526823366318      1.8799352187749665
   491   2    0.095105419704340791      47.766591938750352      3.9940728861131856
   492   2      24.656019179922783      40.866429921619797      6.9116141234606445
   493   2      27.883541259550931       29.97739784751305      12.874554198300778
   494   2      26.214871314397733      19.011579723756839      39.713185337866385
   495   2      34.201857645694815      1.5061524294726816      39.393948163830487
   496   2      9.1442607058304262      17.811224024546458      30.258532205250532
   497   2       6.688728342608103      11.697254091322511       15.49585901756593
   498   2      3.4574528337029808      2.7691911886303631      40.662865893244529
   499   2      28.444746721138173      5.3861597775790608      25.582748675068835
   500   2      32.701353743677814      27.459545347773048       47.08090726586245
   501   2      22.414204316425078      44.337188339299843      20.288204475420184
   502   2      7.5780622198661671       22.20567542513184      16.433815306777355
   503   2      22.458376434799469      1.7878886528621569      27.612181429347824
   504   2      41.865398392143234      9.8663505659366972      45.237944227676991
   505   2     0.71785312693899839      21.786114249723685      14.053408099066406
   506   2      10.505791121168265      6.4794352688479293      45.436068731335254
   507   2       28.66963022347543      33.618691691638766      17.761874089571368
   508   2      28.771823333802171      31.240244645963045      38.162288172199943
   509   2      12.586692568903533      17.938192962822061      40.187556735388341
   510   2      33.059538875189162      10.532102789934994      33.410032526054458
   511   2      25.406196692795056      47.762572922890499      28.388225773916894
   512   2      19.642574583276321      18.366364819122413      22.048652922445541
   513   2      42.978335526531964      22.047938286828984      33.559431609035336
   514   2      4.4976666883875893      42.108763302081073      3.9308822643253585
   515   2      32.350926583563464      5.2837507954376886      46.065594625330931
   516   2      23.402312765412351      38.108875006871372       37.12480182609805
   517   2      30.405233030825819      36.076082979858391      43.344129317768356
   518   2       11.44467368073299      41.748435624177105      35.549051665696084
   519   2      28.974997522008529      29.172463388712679      45.132785986167278
   520   2      13.571093989428226      8.2285306115810499       26.21484469488361
   521   2      34.695452510671942        41.0792566186459      9.1918269734633906
   522   2      28.221753425032848      17.643027906606275      36.597152512989247
   523   2      38.945236602355948      44.016634536012852      22.203992781126566
   524   2      37.241096612203059      26.719408900540998      26.972828742870078
   525   2       8.435648414204735      12.562872030049146      42.914094304526998
   526   2       2.376069940527763      16.311182095815319      4.1136000219656497
   527   2       5.442779210394125      9.7021245271195777      41.610359560463451
   528   2        35.2394681124768      2.3779182680643842      32.449536477353746
   529   2      37.548890396955557      44.273598697373487      15.070338987888427
   530   2      11.109665381676013      25.512863567310241      2.8370928718050914
   531   2       8.584937635434116      13.514777589478523      25.900716448292094
   532   2      30.676233670351721      29.463469524791787      27.141861784777063
   533   2      6.9430765685781122      25.531858488535569      14.398255708195119
   534   2      21.718128282726425      9.2172033319016062      1.1117432418576385
   535   2      7.9192172357550472      28.742282713414724      2.7550076465559408
   536   2      12.201907570834095      28.075053094953553      47.971179007529443
   537   2      42.952007808999497      41.241853632693413       18.70588797441248
   538   2      8.3394227739785087      25.274894327174934      21.531909501433262
   539   2      47.054263196297498      4.4911292821642315      3.3154852111259379
   540   2      3.6298834615271374      9.3585732637411052      37.978441154358961
   541   2      43.335770911582514      19.235978282280392      3.7873524886410239
   542   2      47.768988906004935      8.9721425622627464      13.528081012577966
   543   2      34.307225530057003      46.432562134381271      20.840970178664524
   544   2      35.793494321770794      17.998254220810111      14.376324284468168
   545   2    0.082867475650944003      25.112297313127421      12.017848500484172
   546   2      12.871432336886031      45.791352543561516       23.31994323406332
   547   2      4.3140437955052757      27.343404285316119      3.5649872988397444
   548   2      17.317531188349637      40.748531318168418      39.706180148192821
   549   2      34.516644361571117      3.7261383897213838      42.391563388973339
   550   2      30.946761265234652      25.735503482915934       39.14096518831505
   551   2      6.6802401475857227      3.9139249713314115       21.76783167756653
   552   2      4.7588039713597681      3.4793828544351793      3.1466098223641348
   553   2      45.781877361431569      15.800691587174251      36.851184890078791
   554   2      21.883349194119191      6.4355149147387056      15.918346667817096
   555   2       29.19157620111217      43.728074899971389      39.125505268054511
   556   2      43.999917424476614      6.3964883584994592      9.6357238129664697
   557   2      15.294842696500359      23.522906179654278       31.19302349098767
   558   2      41.868972632594343      20.607656790084555      25.698499674846538
   559   2       45.68312396697003      2.8631190535199038      10.176390547592742
   560   2      41.662224203936887      11.934131823187071      38.267446413709649
   561   2      35.561824761312394      41.266784530064484      43.503593929064607
   562   2       47.44868269799251      24.763459308734085      4.2174167816302317
   563   2      24.937694965940075      4.5301558384034735      9.5981080659765645
   564   2      15.188128666534354      34.024500398149392      19.905062147290266
   565   2      44.339621761748724      38.832310666774809      36.027204702812483
   566   2     0.78497528202539524     0.26306817124339682      18.662888103235318
   567   2       13.75106834415989       11.53584046277458     0.61831330496452319
   568   2      32.226206180774057        24.3978484494857      11.688136551144888
   569   2      27.398851964261077       41.73880232320569      32.035521518850942
   570   2       35.42463148363305      34.043884907324411      9.0093228959340816
   571   2      23.497725872883944      42.893197304027112      30.952313030978249
   572   2      35.416229451823426      7.0328461381708038      26.844370588879286
   573   2      9.8237954511952665      35.647575515251042      40.022004177447002
   574   2      24.628730937270433      13.080117841224942      22.362781169037056
   575   2      4.0547587633650908      37.882708359193074      44.399370341826476
   576   2      45.062554386980857      10.957893337133257       46.85038331771807
   577   2      14.399588317770522       18.28174422620053      43.819475141492831
   578   2     0.91067690706140159      20.671770107779594        25.1292791391805
   579   2       40.64635326290513      22.273038109438925       3.414957343872965
   580   2      1.5011676205089362      37.724531008458072       47.13202184996566
   581   2      14.406917212545395      5.3250402880265133       46.51927721920795
   582   2      1.5180417972772702      7.0837689317310435      30.811583329601447
   583   2      6.4191028646135475      42.543305418977297      22.552104119527751
   584   2      21.286416196679816       34.75288806776225      19.696864650565601
   585   2      42.303611248448746      43.675496201739996      43.883049731111065
   586   2      22.570154240887874      34.757406412876961       3.559923658475419
   587   2      6.1209705389829354      18.754369185043622      17.688957085590456
   588   2       32.75346100690706      32.853431247834372      28.029877067937552
   589   2      46.772476181856206      28.329423735439189      10.332681778577562
   590   2      13.241728629106547      41.803253995938462       39.71829426531076
   591   2      45.218711658706269      14.750292848892297      17.521588667850587
   592   2      25.468550088245966      42.431829262964612      13.967965873579651
   593   2      26.127357641959222      27.047506176120649      14.405823538089841
   594   2      30.769114499890826      20.946542209397482      12.943278329957989
   595   2      26.752208241339613      20.025498600628886       13.80403146618649
   596   2      14.279339095888535      42.675019834530175      32.773882578834005
   597   2      6.5041981512713809      1.7975219538335714      31.125711576192966
   598   2      12.119916164047263      27.031037883165695      43.758782125541096
   599   2      36.401341896169981      5.0812613740456367      30.135425256968716
   600   2      32.359121872788748      46.688494705952323      39.333917407127416
   601   2      18.985404044354741      29.112768828031054      10.543335972128405
   602   2      14.375597758211178       32.45910105680457      12.848710397171262
   603   2        30.4692086035692      44.539883664618856      32.213934944788697
   604   2       15.47956480933934      13.097906230444437      23.650757437822257
   605   2      44.811285546213504      42.875285802908522      37.102624994534523
   606   2      6.8446689103946827      9.5884063631780201      6.4983002873493589
   607   2      41.555661603599106      41.498817794054048      11.572234181174341
   608   2      14.119742475557889      6.7650379597233989      6.4055532276841776
   609   2      20.527998075668108      45.669926316778913      43.977531404264042
   610   2      39.095695315081329      45.093746585673969      42.064255718353223
   611   2      6.4889817269377588      21.838663122269004      4.5436643149548575
   612   2      13.668254208397389      1.8441031942367518      21.736367022035793
   613   2      22.463430205847629      2.8398746515421998      47.011818891737221
   614   2      32.423360248012813      4.1720986352412286      25.540635844815739
   615   2      11.820450858441529      8.1175894037390162      18.799283540711222
   616   2      45.273744766560029      30.268200471781199      3.2387397655151187
   617   2      45.908578365798455      4.8532217992870272      19.635191675230853
   618   2      23.226744581424466      38.431653482366272      19.613834138810997
   619   2      1.4433209165667025      44.014122378416296      10.251120866165889
   620   2      11.116336090606977      34.667463751802245      13.180914255850819
   621   2      33.171579091605807      19.547049478341478      42.248384577981568
   622   2      17.929142402083301      4.3068712510685616      6.1588063370301551
   623   2      2.2218087436835665      17.055360843113533      40.856176956327296
   624   2      36.486546643022834      24.216993805671013      10.877107212493655
   625   2      44.859380198774502      13.025674594383624      39.879885503750728
   626   2      30.627935828545557      40.145767120516481      21.078727352228718
   627   2      39.884135690134528      17.799797584178833      13.646699927113838
   628   2      14.170681862427866      32.762104675467015      6.8606756540102829
   629   2      5.3126246351983868      31.175186546201772      18.508248237093735
   630   2      44.348354014399895      40.984889471332778      25.839541767650623
   631   2      38.618679726479563      11.217832302191947      43.181831376408169
   632   2      45.973031458772368      43.668149000670155      41.209045848380896
   633   2        34.3901290740124      8.3842673962005314      36.172199231434746
   634   2      37.462285618057678       40.25790825177863      36.882414572784811
   635   2      11.795559194421394      32.210615609454294      34.030183379594781
   636   2     0.65132851128863523      44.741829401501036      6.6655355005240278
   637   2      6.7601502453543318      23.908117590209983      36.628819700277511
   638   2      45.352355274214162      7.8779843365363291      16.963729060820018
   639   2      15.441212879581713      45.378362940511423      30.459771358448982
   640   2     0.64897987695470882      6.3909634167166036      37.799139464057362
   641   2      47.507851623032764      47.601523009908632       14.31235345453919
   642   2      23.382685149211049      36.322805754221775      10.616275408594426
   643   2      3.7903231385737968      11.493765439513247      12.818538889189892
   644   2      39.597355998528982      34.971742365176326      8.2553809185169875
   645   2      38.358502565779105      14.330731673484149      15.141181460139638
   646   2       28.55848191625256      6.9050998302784654      13.493896323282325
   647   2          3.916278429798      31.432150707562407      11.374594443855599
   648   2      19.408856459876677      33.106491071029993      26.132553689465617
   649   2     0.56653940368606559      37.289514648754668      19.551505450851554
   650   2      36.152544191555165      44.530562858734115      7.9366851946502841
   651   2      28.689611013411678      10.863889692493348      2.3733651556680817
   652   2      4.9932297593340049      29.720194410159138       33.22772394183751
   653   2      39.301533890523515      34.571114572973606      0.6456081159272592
   654   2      32.859623239624725       37.71140745465037      8.2444657202626175
   655   2      26.236978180567899      39.035459217224442      34.349632739235972
   656   2      24.513229473495766      23.741083649151218      29.371453943131915
   657   2      9.6378773992433953      46.312427734488686     0.96233412747005287
   658   2      10.450417664242782      40.406892877555109      0.2879637908608656
   659   2      10.114083481909748      43.896271017911559      32.786884960315795
   660   2      6.3787837762926767      40.106192133117034      18.960486123065078
   661   2      29.499385827489878      18.454836671253744      29.685582189723434
   662   2      37.871298381706225      27.667494981827893      2.4342647843261807
   663   2      45.888039862753345       2.560115434857456      16.164425290753716
   664   2      7.6826474080113982      26.683134583000601      33.600119086605574
   665   2      31.343383756443998      9.3559366309973235      45.709353548486305
   666   2      2.7476163911900686      34.842709093527738      17.743391061422273
   667   2      29.043205297274369      41.903396761197577      35.624257034528206
   668   2      37.582708057064195       10.53358018439787    0.021772866703473601
   669   2       5.455743507677246      38.633486539286309      6.6912329044560046
   670   2      18.101069813206831      26.390843723627412      32.467647786279898
   671   2      2.8755598864517236      24.598368990406158      26.285156086960455
   672   2      32.085027509428784      43.597073360604703      19.823585573415613
   673   2      42.460868591563695      40.649327194923146      46.805774316641042
   674   2      22.707877451536284      20.115460161855527      2.8274288859938976
   675   2      18.557250343422336      2.9422836336835774      26.528972941475129
   676   2      45.755992537828774      31.166785705274865      28.067270112134413
   677   2      35.969399088424154      16.720900254548457      3.1475011610030688
   678   2      21.140879642389546      32.322629973623421      16.262143673825776
   679   2      16.456716480193535      26.226249285635525      28.878912270602648
   680   2      36.997680428790204       36.31332351910288      35.645737076766366
   681   2      41.139303224189653      36.742058333937202      28.915802742622706
   682   2      31.067944046654169      22.623707013877702      41.899066120294037
   683   2      2.8838082866879855      20.439784694170406       5.353643967238666
   684   2      11.500951282464696      14.311967372782268      23.692870268075357
   685   2      46.700570771076521      4.1255147762022819      23.220777040872722
   686   2      5.7710007190993293      46.652387469479095     0.22622097919158241
   687   2      27.588195108475105      26.813776047854113      10.325113948682846
   688   2      32.024282033945951      39.888802959155854      28.212381145466857
   689   2       28.79210655749835      36.777917956520966      20.131366099027943
   690   2      31.591220529485994      27.724031512889429      9.6525769525626526
   691   2      20.465721163333448      7.8116592525469581      23.964885684413773
   692   2      40.341582807756346      43.759670374652217      29.337646574364705
   693   2      1.4789069727524065      10.392752022065377      16.097289917709102
   694   2      42.531227080675038      15.258589131336057       14.38723948272254
   695   2      11.341790489435404       36.65756649756937      22.639715383488934
   696   2      17.392457521581132      21.142491729130107      45.123209885556378
   697   2      25.708707428839251      7.8962798454688468      2.1940634653664879
   698   2      2.8708402210603108       6.372091679986239       22.01457856822055
   699   2       39.07628022179356      21.121585112805821      11.431192088370254
   700   2      46.580041425479067      38.550529805466667      13.005280135684515
   701   2      30.057693264282925      21.105532698022252     0.97737686655803047
   702   2       29.24288194117365      30.841591677179832      9.0391481102362263
   703   2      35.816619008008146      16.866308086049418      25.533600305879169
   704   2      1.8390510932426545      28.042188984519825       10.48657916069511
   705   2      9.8002602404943886      25.041164198908405      17.451199912026269
   706   2      19.200551257644896      28.643864559019406      16.345174185580372
   707   2      45.008717345583449     0.81921905928165595      3.5554127426033859
   708   2      18.562598091707507      23.550202814878507      42.217370626116107
   709   2       41.74764034037257      31.135827877867467      33.709440517365024
   710   2      37.671758059048344      11.675985799643692      4.0729125443954164
   711   2      29.614887291264544      7.7938708633274683      22.676909415628575
   712   2      18.232070424858925       36.65824714409748      26.017103252406137
   713   2      24.162474662568894      23.120907293494085      13.249946590309889
   714   2      7.7312216260302238      41.587688111153895      26.288491370918624
   715   2      15.931058272533853      31.018127904366285      16.863574573968936
   716   2       19.94860471331377      33.966251805812988      1.0075369635564961
   717   2      36.950264607988473      37.512950818019092      7.5148413629082862
   718   2      46.703980275377319      37.171820062926919      1.4500830971161969
   719   2       44.39896443797506      40.997335360693604      14.813394525113795
   720   2       10.40899254079318      4.0524658892344272      22.068570880715349
   721   2      28.628092575252442      4.0059374671279917      15.861013559994461
   722   2      1.3512701857896721      35.099673254888366      10.609737268184137
   723   2      17.429943530032066       30.55374198046934      6.5284717953307254
   724   2      33.521067153689842      7.6914618811860951      43.159755365890668
   725   2      32.238638135173836       14.59709858445107      33.082901897981152
   726   2      30.329631434244014      17.321728884041327      19.129570869995359
   727   2      10.570264012125259       20.44771092796773      26.848210115511023
   728   2      26.413739519914529      43.690387087330855      28.744466850761512
   729   2      45.795310643375458      40.740371199332969      21.947048318351932
   730   2      36.130403991675479      19.238192602091402      33.048907548334718
   731   2      16.487107636458809      9.0257203948847948      24.006998514666872
   732   2      20.638151791157604      14.401041327657705      21.280460945528208
   733   2      4.3527072124328203      8.0103531420841101      28.036414242739369
   734   2      6.7089708405987842      30.918222384841144      25.641902030331881
   735   2      39.036962116246876      11.547999618747715       17.55141388215273
   736   2      27.023559904974995      10.639179347146314       12.94979853096179
   737   2      11.916741975840912      29.098819140416069      36.788284311573761
   738   2      8.0110509319161167      10.575756112393853      19.046030431365239
   739   2      23.372281135714733      40.861911576505094       23.04855511555083
   740   2      15.653786717816189      30.857999938775187      42.319443914829705
   741   2      5.3004231223419698      14.071520641981623      35.928319596435045
   742   2      47.472216241190196      40.691015803015759      35.163959417805906
   743   2      4.9781935891877804      21.605259605909001      13.242378760415175
   744   2       18.80846491925319       6.047767626644367      18.767818885180489
   745   2      15.491947475162377      1.1931882909504576      45.750196977926777
   746   2      20.015007341118221      10.415894759811408      9.5104968020153802
   747   2      16.205607414592816      12.874061468466239      9.7572436926694035
   748   2      21.296820210176133      30.213782245478932      7.2645849436091998
   749   2       46.34776815869175      4.7447067788948019      37.747949391836713
   750   2       11.36155205827621       19.94973130270078      36.863699146536042
   751   2      11.838402682114953      22.024820781317153      15.622785968126122
   752   2      43.843509257742738       23.36458088063549      5.0273964339140402
   753   2      7.4999073728171375      17.646629586554571      26.669796689573275
   754   2      24.436373916715734      21.677525929525387       25.85987301885163
   755   2       2.404742950899811      11.370111603619824       34.65458356550667
   756   2      13.550151672864553      33.934657474311408      41.970125457142174
   757   2      16.960661569297333      12.321253836146642      15.830735403855918
   758   2      44.656206010568155      15.093455851633998      32.909387689783394
   759   2      3.4488700642945052       26.02676169150962      32.097022473961033
   760   2      38.415505538273209      13.285613559442321      36.211333562440835
   761   2      3.8515845751587459      39.950489616443448      37.428872527859141
   762   2      20.504827804898063      30.941489268563679      3.6789995779673377
   763   2      31.201027668391845      13.725332745859369        40.0273135844579
   764   2      30.881505084150792      42.739693380021237      23.765802820291569
   765   2      13.486277659155839      21.244900711271484      24.640363935294282
   766   2      14.962577439747889      39.032510489444363      26.535503640794698
   767   2      28.158689498647668      23.464358951356289      23.575036929910215
   768   2      35.193787287944303      47.615078916305393      36.558748320265344
   769   2      1.9628856090864575      37.032550487394033      26.685159244089689
   770   2      15.651995437163496      19.687288305555178      20.966332698936693
   771   2      4.1439625965904607      34.585744932167103      24.877044854660411
   772   2      5.7442793043225695      34.247023876461839      1.7763306304408224
   773   2      18.737224698153998      6.2495934848771082     0.93244155155604003
   774   2      24.518577221780937      44.349002830346151      45.059851627772893
   775   2      33.561806910691615      20.432613886676215      27.210585916434272
   776   2      29.422530270709846      16.391278951627914      26.174001265443145
   777   2      36.546288416412835     0.73190654219677442      22.316297238102997
   778   2      37.048661855825912      36.940514970568486      29.645427099977034
   779   2       20.10278815060369      43.236174921851976       23.56695550393939
   780   2      38.834264314020203      39.081380595747859       47.79807603630212
   781   2       2.609702938088136      45.001472127632134      22.798851010181775
   782   2      33.347404147077711       30.65392318428183      8.1213076127735899
   783   2      21.543501676279931      26.517812661903015      42.396672316417707
   784   2      21.537736881409916      17.707749076107127      5.7332681454341614
   785   2      41.905535402765224      12.332358691134678      5.5760091570399455
   786   2      26.571711464447663      29.651138017689789      28.059702282239694
   787   2      3.5033681739684144      14.016702270220257      31.759076996820376
   788   2      37.677621434624157      10.683805789080935      21.386819970217285
   789   2      6.5125152701354398      37.766219616550678      35.490206951130531
   790   2      21.657894795290758      4.4454121689715773      6.4595455401789792
   791   2      16.912950964406601      43.489059331034063     0.86958706780487038
   792   2      31.952533962367696      31.953737021843704     0.42539769417754564
   793   2      9.3388635664269319      2.7241061641866384      28.350542489330884
   794   2      28.467259175848298      25.043860790357584      43.892742040894262
   795   2      13.556515344982852      44.023239956187169      42.715909490453598
   796   2      25.304517519646716      23.243104023884261      39.386942974156923
   797   2      30.678546252120725      40.158213009877308       10.05258010969189
   798   2       46.01844718917522      17.859839717588372      6.0060734500291542
   799   2      40.433308321647267      11.291035457387084      24.685067675390876
   800   2      33.481373714829175      43.340109199244068      26.957239366653752
   801   2        38.3102509510679      47.342817599416577      20.168433182544334
   802   2      28.933285228843623      17.578693045401959      11.995917076757218
   803   2      35.149942211012444     0.98887070355740647      15.182643444864855
   804   2      2.0186345554772114      19.123142100363907      33.885679142359955
   805   2      10.144035062126209      22.553828708840271      5.8624270362224493
   806   2      46.139448146750794      24.122626658357898      27.524822006680889
   807   2      2.1862505225662034      41.007749884633199      7.2096332928445683
   808   2       32.96840490339946      21.614830735591852      35.277886764014227
   809   2      8.0404000171745711      25.630486244376495      5.5131085785349203
   810   2       39.21611775408784      15.369418518293212      5.2036140122718866
   811   2      5.0133304877176084      40.743352814205082      41.535293381705515
   812   2      3.5343083904830115      4.8327489082561925       44.17444681752481
   813   2      26.704284636720537      3.9309563540041346      1.4258714884491552
   814   2      11.321251986390292      34.364460133139801      19.168948999011793
   815   2      42.100437060242392      45.743277458990363       36.91255191714373
   816   2       19.26549544988265      37.388772856632698      33.088010825425528
   817   2       43.09318648034477      22.042628721574406      10.570438952141751
   818   2      40.624284706333697      37.881270118278174       34.65343535710528
   819   2      39.706597156468291      47.085853438055949      27.302086975782473
   820   2      18.544867677599306       14.84700157317755      4.4295334013706142
   821   2      9.6794298728587247      18.609243976164521      4.6257495402040121
   822   2      41.275976555907789      27.092852741733751      32.634020225642992
   823   2      9.2926316096682289      19.635902163320264      33.759780438776843
   824   2      14.736269659219516      27.080810166485527      1.8447911521440095
   825   2      10.857091501505227      4.2077705240480352      2.9384123256394705
   826   2      7.5875985163941788      6.5820338693949161      3.4568127140280387
   827   2      36.441062872888935      20.763875390682184      4.2229214527251022
   828   2       47.19165684877585      40.483407037972341      29.080702111590078
   829   2      33.207909779026963      12.356780928708801      36.911280759580769
   830   2      15.736394720851033       18.46877380126379      1.5658069721834496
   831   2      10.026969639401612      33.579794258000661      46.992501991414336
   832   2      15.549203251648988      8.2561303216420328      19.100022743860048
   833   2      25.866891529155055      29.223326232761945      47.571486573818142
   834   2      12.460177281344807      22.596321969301204      33.968192577849749
   835   2      38.045695229183266      5.2458558120375214       33.72416077264598
   836   2      11.828939053463904      15.900918523730127      12.527310880710624
   837   2      5.3598921036702771      44.388091935474151      38.130429987790855
   838   2      43.205577064604739      43.835779892198161      21.392963442475335
   839   2      25.663717340948708      31.291107490012315      40.600988759850807
   840   2      14.257232229718372      22.651140341062568      38.137435177464425
   841   2      13.427655428470326      42.766590006312214      25.991405848474159
   842   2      36.281275229223766      10.940769950441569      14.253166176979143
   843   2      12.133782894713466      35.929859474484623      26.225300749130795
   844   2      20.234767093735769      35.148455200890432      36.916389687025131
   845   2      36.913904745667502      47.599781760777212      13.034779389306193
   846   2        27.2080770359882      34.984540208661826       41.73169022772727
   847   2      27.418885038335318      35.902935983120905      24.154988327200801
   848   2      25.175365259047272       29.90810217905042      20.926048489001559
   849   2      44.040236512797485      8.8336016443597298      13.227341809429142
   850   2      22.808215829966933      47.139916131122071      3.9745306421360738
   851   2      31.530904381689233       36.78331871539865      47.285926518063761
   852   2       10.56849787381045      23.239214761058207      42.789337861961037
   853   2      20.171566651151934      30.244125498677597      23.211917728129819
   854   2      13.151261642771923      14.779420544801468      16.077482294509934
   855   2      34.485542181483993      13.168589693356267      29.999710436314949
   856   2      15.100239835903857      38.610024040014096      33.101013206907311
   857   2      25.893251913979896      32.433870072426224      25.649469860226599
   858   2      31.327730193482886      38.851099972649017      40.315428704096419
   859   2      31.498293472851937      13.911170498075995      12.760774252428682
   860   2      24.917156462894962       2.237049473973912      6.1273416814994217
   861   2      36.590685404552403      37.439106229055447     0.45553503853646882
   862   2      43.002618232574669      41.254299522054239      7.6797407318756541
   863   2      42.628778195149138      4.7684781298551266      16.496629149433272
   864   2      35.160449895735113      30.535486637909734      2.2441917069353901
   865   2      5.5145809961259937      10.713696248065364      25.722303022354346
   866   2      22.303687542343752      35.462284340270941      40.020308394784337
   867   2      34.408686624703961      11.105031973730437      26.488129512034668
   868   2     0.33582250229183519      11.056282464239313      31.550664857747467
   869   2      25.624308145151712      9.1147943497602348      21.594589192119724
   870   2      41.809230859204341      44.092744053558803      14.259309649237196
   871   2       41.45905001573054      14.001913080437436      31.296948599742315
   872   2      45.952930730388758      32.644990596624211      32.901476408512877
   873   2      3.3724131293633954      42.139106555279739      19.878215048845977
   874   2       19.05501470335463      26.213606464880584      12.910453208840545
   875   2      7.4354344818601401      3.6783539274347712      45.257655305397506
   876   2      11.754048230637077      31.667946449740597      10.296323702252334
   877   2      30.522298453550405      25.050117430697991       2.214054362576467
   878   2      32.254062033009134      15.769859706051822      1.7737318152958754
   879   2      46.615057864106667      14.493328687531665      24.655242461088726
   880   2      38.463710398548656      14.325099633206648      26.274139861487868
   881   2      20.722350890932013      41.030892622379227     0.62284017715084805
   882   2      28.920050052760008      26.533577853399386      28.673131124566126
   883   2      40.264499822837493      45.985000186893572      46.009419367903192
   884   2      44.550278161227993      25.493934961662625      9.3152971733286485
   885   2      3.5855752874439699      3.3821707618063632      24.496452282944386
   886   2      18.567866139326124      46.970254438719827      23.022857711618851
   887   2      33.702985582036881       1.233388975557216      19.075136894163542
   888   2      18.717298305423462      21.436383648288288      1.7451086624850478
   889   2      40.321038697103745      6.1729178472871817      44.107242759800513
   890   2      20.427369233575824      40.092115962613953      30.773899605040498
   891   2      25.516350408284559      16.493687933769294      5.6911553151810574
   892   2      25.242998861459498       47.43983935425959      20.598407367084086
   893   2      11.540086788204579      46.532757921332845      29.376562870576286
   894   2      30.864769858447819      24.691488271128076      34.928568306326703
   895   2      22.623478167848749      21.333974666146922      22.227954612747133
   896   2      25.365997087846885      23.978287274077545      9.3077293434339303
   897   2      33.807232282869236      39.542742665207356      35.563651851517207
   898   2      33.023926597207364      17.380236408770685      11.266292719402887
   899   2       31.49005995246619      45.995689190937895      46.321473541583337
   900   2      29.694320496459238      34.015261638753671      35.133587558528006
   901   2       34.39864041221675      28.518450326737565      33.489230095615312
   902   2      27.297127037972345      36.126945823907661       45.78282990541922
   903   2      32.910879324656612      46.689526295741899      13.707316385426385
   904   2      25.558820867969285      22.863943132133453      20.383600383548028
   905   2      27.560063709680584      16.703711072001902      16.019539304930078
   906   2      7.5679271679585067      18.509850913043813      13.796463636291774
   907   2      23.743759734325675      10.554435677714423      9.8112360051642042
   908   2       44.60192327000513      43.578815730837533      28.526617235713474
   909   2      14.882452666833148      3.9026723873709983      3.4849172663483809
   910   2      8.7257859982997701       7.585835194213983      21.527904146089078
   911   2       25.45187751732756      2.5254122746494865      24.279013931005295
   912   2       30.20715510022109      14.162502619159129      16.760078860538776
   913   2       14.56625415072466      16.061062715515384      4.4716462316237138
   914   2      27.609634521842864      16.047727688249442      22.542082859338656
   915   2       41.87910768450201      24.303481302172585       28.33585134533212
   916   2      16.146205485824012      30.549223635354636      22.665412787420909
   917   2      12.942956440540144      10.316794032790877      6.2901027906246956
   918   2      23.908905406963655       20.52698103398933      10.562871122247039
   919   2      9.6734634554291006      12.691057378137758      6.8085031790132593
   920   2       13.14877680728727      23.203359582156668      0.7107232350129552
   921   2      10.493408455345229      18.384153208341907      23.336629191230735
   922   2      2.9777922302506177      9.9283660981684321      5.7621871390708899
   923   2      43.786394614730156      34.200849881094435      29.656342298231408
   924   2      5.5894554064163131      46.341877087060141      42.222479553560483
   925   2      41.199317419058033      3.2773857679364928       3.802159633257403
   926   2      32.894639678252332      13.654206336715369      19.894428045666821
   927   2      27.694033805530392      14.829213183958061      3.1415571325854099
   928   2      2.7707410774274255      33.710762958767049      28.900667082833273
   929   2      35.671017987747874      14.839027955927909      12.006832275011588
   930   2      23.948675630108994      10.251432059051977      15.799270748325178
   931   2      25.199367713785911      38.163693378632743      41.294044425712727
   932   2      21.473263990452917      3.7394734169873232      24.321126761258395
   933   2      22.100872280153141      16.524918268554249      12.862187267000607
   934   2      22.308691451972443      19.113988705898219      19.230339387604296
   935   2      28.297344633280382      45.534480277924359      14.278168765243556
   936   2      12.535450444826054      36.423029326274047     0.91749924332437915
   937   2      37.536442763278885      29.883030700199935      29.522268992488016
   938   2      38.884491126873115      40.308364134564002      30.592788353177809
   939   2      2.3359329299057712      13.845173970617335      43.775535092602688
   940   2      6.6101645083572773      18.726866653230779       7.301765246933841
   941   2      27.003021401929878      8.3460729827167484      9.4790321464846503
   942   2      28.564422390705879      33.624323731916263      6.6289156882231293
   943   2      26.867245118361957      24.334951844126731     0.89529164130888006
   944   2      28.784033143039029       1.897089738983496      6.8634548297778961
   945   2       35.51755854026711      47.856745922137847      5.9011255960680522
   946   2      4.9767548113336364      13.891028319335435      2.1199241013654286
   947   2      39.036791854401457      34.003819533949311      33.519367439974232
   948   2      46.078390846941673          46.11043064799      1.6178839383633217
   949   2      39.912267088929049      27.909862560031041      7.9522745708666118
   950   2      8.0619903187860906      36.572822828137475      19.501152857691352
   951   2      10.500737350120104      5.4274492701678865      26.036431268945861
   952   2      27.273284018075035      33.875655852999387      10.628220296333222
   953   2      17.535130888541453      1.5041434592463359      22.472480170314263
   954   2      5.1736079524481422      3.9453573475680335      28.363544870812675
   955   2      23.428199210878788      27.872935646227269      30.140534184413088
   956   2      1.6940541860425631       9.923847753053721      21.899128131161071
   957   2      28.414355564872896      22.586688668329796      30.454662431004611
   958   2       46.44318126616335      9.5290290760505378      31.575460596716912
   959   2      16.430830034727098      36.462188646279628      35.863179912287606
   960   2      3.7056742831095217       42.83647032516582       0.345296898683496
   961   2      26.211479694245462      39.425456769181515       10.92647830025833
   962   2      27.583880090040896      46.098098173079265      25.838627591321245
   963   2      17.547094491095685      42.702316469754408      43.798229713962442
   964   2      46.086441519385446      21.997075442779714      31.120731021384472
   965   2      5.0587462181204685      14.935043531123291      6.3323209833537781
   966   2      18.227884983100655      36.517007018040999      40.032422511902276
   967   2      19.732801906035284      2.2842699934123969     0.16424957463871198
   968   2      27.294847805966555      13.827741728000746      19.544467634195811
   969   2      32.176753023319705      11.128438443339562      15.171006674441779
   970   2      22.257431590186851      36.353149007420441      26.563608193115044
   971   2      28.148554446740004      19.768534439268258      20.937685259424633
   972   2     0.63079000824352804      42.448723037071474      3.1947691160468885
   973   2      1.2287938517667505      31.940446990006166      8.2402452587275583
   974   2      44.506220273571103       9.912204914654799      3.5823332364397249
   975   2      10.095606391570218      28.204785998567342      20.000640161644199
   976   2      20.530194054290448      21.779934911666764      5.3770270685895403
   977   2      26.529658030274042      21.231565684005542      42.710800563009229
   978   2      25.514154429662216      40.383679338881436      44.291659650855564
   979   2      45.249142935623162      2.0981161122943681      40.643455960523006
   980   2      41.167434622984175       46.85212330978942      23.221377386375483
   981   2      12.671091852591069      16.719678458530673      20.787031008635093
   982   2      41.954371573762558      2.7245781356168881      9.8756513444439165
   983   2      8.6992601861698233      28.461750159927973       12.86698636840606
   984   2      25.305251612364049      20.270016872628695      17.696524915485178
   985   2       33.67576736740579      5.5776427145958767      2.6874934022596033
   986   2      43.266490335179242      1.7689608277934832      13.612038595834786
   987   2       31.26049664972015      44.041904039351898       42.22942397581371
   988   2      10.441929469220405         32.623563757564      6.5599364508614588
   989   2      2.6361733114690944      34.297886720511102      4.2150312180916902
   990   2      24.363940252266389       22.78917808972184      46.384831799366822
   991   2      33.730214386917822      23.631867046764022      4.0328483753343116
   992   2      29.816768393823704       47.36320071845698      7.4138323710824832
   993   2      32.595790875836975      10.761480710351972      22.856211105930171
   994   2      8.5106253651025625      17.717990374944922     0.68058589065403685
   995   2       40.41288465380395      44.349708214919431      7.1256558559990566
   996   2      37.660108002127046      8.3571878471799508      46.045908336529124
   997   2      39.376285428006497      3.0980204183030597      36.486327478026269
   998   2      2.4013977358563552       40.53884561562154      13.011471506296537
   999   2      20.318361165652611      28.529351001781734      39.072814727565415
  1000   2      39.771088417583776      47.109087471150048      16.087723593137344
  1001   2      12.876712500712967      32.923486980701512      23.183813175809469
  1002   2      6.6325295426949928      35.081730466218829      6.8066833415154813
  1003   2      18.291472353627732      18.983084977209089      13.108934157654629
  1004   2      16.968317605868062      10.011695896113839       6.836607731333606
  1005   2       29.62633755009567      23.797432630262865      8.4967000047827028
  1006   2      42.413273748925448      16.460961289489767      6.8160531023129618
  1007   2      30.694863782833362      2.6100328675713746      2.5081917119580046
  1008   2      42.210950843162053      4.0246046286561263       33.71115839116419
  1009   2      42.563780828384566      46.595159148428777      30.355031179613619
  1010   2      26.523893235404024      12.421502098209652      6.0473963920256741
  1011   2      15.032188098747774      36.133348126293882      28.902620877506834
  1012   2      36.142409139647498      40.834738346646091      5.2993335241647017
  1013   2      28.264084987641947      27.111642047607958      36.922244226926921
  1014   2      20.689413962504794      12.459794754049653      16.131474607004741
  1015   2      30.869898082073941      8.0061132477263381      10.215145294763122
  1016   2      33.552675560876779      43.930147039511283      4.7452486482881042
  1017   2       25.77784152717091      28.080920617516117      43.520346896126199
  1018   2      10.949466802058678      36.354811250791293      43.963801377742399
  1019   2      1.2059378026518048      27.394267129365389      6.0036878864906118
  1020   2      45.017177959868519      6.8925421726292644      34.985782686456417
  1021   2       17.11722087933105      32.149484575012821      29.532156329970348
  1022   2       11.57338494691405      13.200315212585807      3.1679114875601666
  1023   2      20.172398809603575      40.337012558701502      25.934072740651526
  1024   2      27.730903454788788      41.254177209714136      4.0621419060972581
  1025   2      11.491952596970611       27.94782183720671      27.134293954882345
  1026   2      1.4535727778706962       13.53616510302469      7.1423006356375867
  1027   2      35.643816168099235      42.310799741852335      47.715990811052968
  1028   2      18.249440717044628      28.215521862401218      35.968896019806216
  1029   2      13.865996709155578      11.789499626621591      18.559356009233774
  1030   2      23.816024577424546      29.043908349383639      24.761454577066111
  1031   2      35.010827364071645      13.860255799536461      6.0115781211240238
  1032   2      15.028821379575062      16.425817541533718       9.641793255609926
  1033   2      5.5196347671741552      11.765682246745401      45.121940484743732
  1034   2      13.351950995493624      21.135578324906295       7.681221048980289
  1035   2      3.2909716550622963      44.074262796093635      35.026511280031656
  1036   2      35.703571735457395      46.175597973020629      27.974623971902666
  1037   2      36.329540110438103      4.0696896530998519      46.023481795077828
  1038   2      25.373994320232406      20.863084048631332   0.0091153511526527991
  1039   2      32.281004159960666      8.5414947501032685      19.858595880787334
  1040   2      42.833694090932454      4.4654745111926832      22.484663892594249
  1041   2      43.372824626855234      6.7279477346373735      31.397047170779167
  1042   2       24.73101143655883      27.304470337481277      7.2721697448517011
  1043   2      19.527073119501658      29.027330627048684      29.057325696540392
  1044   2       47.56986547941203      21.651662839695856      6.9755177136092206
  1045   2      24.125614755210542      33.316433260438671      7.5747878352730993
  1046   2      2.9983307332957296      12.221472462597994      9.2329535235480282
  1047   2      17.783971464146891      36.502942509283869      45.147261807482018
  1048   2      40.117864508897384      8.2406991045375548      37.136744945833179
  1049   2      32.737146905601811      34.552181189768177      5.8749737108060351
  1050   2      15.450612529609838      32.925781196025554      35.348946100862371
  1051   2      26.536968223174391      47.278457049025079      4.2752698452848978
  1052   2      7.3874303910665571      28.135490330104709      28.052134452344976
  1053   2      24.451103284139467      41.169433540282242     0.92357938029967201
  1054   2      34.539163579606864      9.8172806634027463      4.9361578294019903
  1055   2      10.365323685604103      25.306996018308581      35.818840047993703
  1056   2      8.9744084252665637      21.948711263771209      23.567469100015497
  1057   2      9.1128829168286885      33.586754174146321      31.811462418206652
  1058   2      21.416986388721206      31.175941668382158      36.177308158879121
  1059   2      44.408571035349254        28.9515578779747      31.770774940636414
  1060   2      32.216071128866389      20.702023937397669      9.0507848806593039
  1061   2      18.434713962109804      46.115886562298755      27.126603860106446
  1062   2      44.047892549368214      6.5240437043269344      4.2332141369068363
  1063   2      11.574270570943497      29.457448299985984      4.0737703678235277
  1064   2      1.5155735433723074      14.768502209008671      13.631564267324404
  1065   2       23.52067842634872      25.880286549724701      22.212014327448173
  1066   2       40.99354677754733      8.4294027806621656      10.553452738747367
  1067   2      5.7995401242852287      44.748587718450047      45.496219446316303
  1068   2     0.70771807503132955      18.090289737635661       11.41605642858082
  1069   2      30.610464499145824      3.8285473718627565      21.908717438711246
  1070   2      33.934035222949269      24.573865594061822      32.252552599596875
  1071   2      6.6191176836082128      14.596416454472987      13.128741780853796
  1072   2      38.374742212183385      47.366051632510676       8.954069799899198
  1073   2      30.090055515061298      37.093389642610944      5.1344341551973347
  1074   2      29.231589623145165      40.402731281877116      13.945073558990575
  1075   2      6.8342648968983699      14.127512185461331      18.930579994305763
  1076   2      39.613670099834223       33.27299242324252      30.410284275648504
  1077   2      20.086396189897968      33.323777062116626      33.415141453498833
  1078   2      2.2181748781351009      35.114651282548095      32.247031382290729
  1079   2      15.736164929388849      47.040815404101537     0.75413663074538884
  1080   2      17.657248206585184      11.433431480633203      21.101159255226616
  1081   2      19.450217562721626      26.963772907422857      25.545744772260111
  1082   2      23.531024031593414      9.5607545952800788      4.7436616479621314
  1083   2       25.07255254389208      28.037530084219153      33.729269700090349
  1084   2      8.2874447176145178      38.562925573904593       28.95995398532947
  1085   2      6.4555860874004551      17.711733734604518       42.35927356897183
  1086   2      25.312609520459379      44.540676991109116      22.965524603796219
  1087   2        31.8279749013636      4.5308364849315836      12.975495934893763
  1088   2      22.675341599397257       5.707807891653955      19.503932033458959
  1089   2      19.054182544902986      16.120719404856686      10.188298196318833
  1090   2      41.566953921627587       31.93767818935676      6.6663087324199921
  1091   2      11.584833426509716      19.430894521812398      12.935710500063269
  1092   2      16.000668931533742      28.118965541215815      19.230691810681076
  1093   2      11.196606445894782      24.784200037547773      24.584853705264408
  1094   2      34.156176821162312      46.743313077713694      43.503160006742092
  1095   2       37.78588224527055       8.465798927147496      6.9922706806708028
  1096   2      16.156609499320325      26.010117813071314      10.233133080464505
  1097   2      44.554816040820633      6.8292907387781661      45.610339372445054
  1098   2      34.867584868321899      39.387320525795417      31.453541489406312
  1099   2       17.88882331376243      1.8697579652082912      2.5671883405674816
  1100   2      21.043233131751091      34.294579814286195      44.815057948802462
  1101   2       28.81523124373571       35.64597182176027      31.288642120438944
  1102   2      29.092062944733115      18.146497839552282      4.0027110309753891
  1103   2      24.549067170732478      37.310155503437613      23.164005552610313
  1104   2      24.602113541349048      32.685202193509355       29.64877446833669
  1105   2      2.1327587416994254      15.912955227867705      36.805037278635353
  1106   2      2.4492781278660285      8.9646009053322437      44.943527058805991
  1107   2      45.183695220078675      38.807493966827309      5.8716263424463779
  1108   2      44.389154605255129      3.0245013587544003      26.499528069391928
  1109   2      37.224794489167948       9.310851606553598      33.397030144572668
  1110   2       44.10130570513023      27.138970075949146      29.353235950581031
  1111   2      14.438271312793333      22.625236600539989      18.814222514488311
  1112   2      33.753596005612053      1.2458348649180384      8.0489896516267141
  1113   2      9.0690331093962726      42.374324373103164      44.977819057927732
  1114   2      2.3217000112091712      46.314580451835909      31.198132418432042
  1115   2      35.160077262920112      4.6846952156454336      17.819995115350437
  1116   2      33.431920557374831      30.070699193097937      30.440109489950647
  1117   2      46.366325709383318      7.4654713564247093      28.063879672436631
  1118   2      8.3233599658151043      21.876219819062534      29.931401577177219
  1119   2      14.476443874550554       20.34530194582636      47.331056065773112
  1120   2      14.456100435235161      47.329947704636588      27.168716690359545
  1121   2      43.180222487015186      1.7842869729138575      37.539537252763807
  1122   2      2.9119197487726947      14.511538047648038      20.765218060562542
  1123   2      30.688681304028393      43.854037521965338      12.689931780177474
  1124   2      32.299978878100532      16.728247455618302      5.8215050437332332
  1125   2      29.796229890778591      45.070094354027418      3.9430659866053439
  1126   2      3.3647570927926607      44.448664495312528      28.872342721368284
  1127   2      8.2600491533812885       39.39187107794983      43.591406232974336
  1128   2      34.525091611632057      8.0108782790491642      15.784435516768205
  1129   2      7.3875836973995188       34.52892283389923      12.880175052701992
  1130   2      16.619417037366006      33.817034797245157      39.294109750412346
  1131   2      35.440641979892881      44.378580999102709      40.745492997085634
  1132   2       40.94557165265573      8.3018474348346807      15.955962414807001
  1133   2      16.526243142198698      41.246510943435368      29.690691117167798
  1134   2      32.295005367265105      31.595107862273789      33.139911637927781
  1135   2      22.039749816175629      27.207409751695828      4.2230973702878742
  1136   2      32.910148090544681      13.534683488415364      47.982204895930472
  1137   2      42.676828100935317       17.28586926145757      27.914007513590121
  1138   2       19.97468825279735      7.9787814739511376      5.9188788055527066
  1139   2      19.006207420011378      15.993164059029212      15.590807872378468
  1140   2      11.406087235242428      17.544220604413201      47.152642639835364
  1141   2      2.1727779751451712      16.164537663954722      28.996910291440088
  1142   2      4.2851412679357344      15.386520021048099      16.741595832389688
  1143   2      42.854232593977571      6.7585808756222496      25.955430277071386
  1144   2      8.4039140350939974      25.298128360269036       10.31754611878813
  1145   2       23.72338105214811     0.96334650697963686      1.2465697981475568
  1146   2       43.14148432215093      11.360331125849711      16.633573384690095
  1147   2      34.949259516155934      11.225179503261787      45.855835259138331
  1148   2       26.48719505415054      30.234362008873681      5.7409004050626384
  1149   2      22.463202231697565      31.201131994694766       19.81231508762508
  1150   2      1.0948192440962352      41.860093522958806      33.191026222030985
  1151   2      24.381471874355778      7.5549183756527754      6.9266454515657241
  1152   2      31.450041858140729      46.923256424008429      17.788025974833381
  1153   2      18.542671698976967      38.736992978289699       43.03003773704512
  1154   2      19.552410504718772       10.77481573761791      4.7857744782152301
  1155   2     0.57667445559372477      40.985339160842699      22.188857121337133
  1156   2      3.3244380044717907      42.011551209452264       25.28072472490561
  1157   2      45.578703173225222       17.86847284442462      29.880687076111453
  1158   2      44.457854889472209      2.5960957375613232      30.627966929497983
  1159   2      22.340893824535101      46.013477580157385      47.609449810368538
  1160   2      27.544762013191232      22.268843797566962      46.921442654566206
  1161   2      30.202058842619461      38.143864237108765      36.373631503801022
  1162   2      44.500825003773642       12.22452495551649      12.798167296625545
  1163   2      13.041925107392938       22.88220076190062      11.680568721250166
  1164   2      13.094394274724195      42.069226236426132      45.524323998636646
  1165   2      41.257357209297567      18.674779557578891      9.6230776989409783
  1166   2      40.159315398198714      41.755781955414676      4.4385803879361987
  1167   2      1.9730206609941168      40.728374999482057      29.322510914575275
  1168   2      38.178178256484657       41.31655681338431      1.5896029556675231
  1169   2      28.512491846570537      45.065576008912707      20.080006978695518
  1170   2      5.7194153513704897      9.6187496163766895      22.445633071869974
  1171   2      19.761526094716778      46.735717267424505      1.3006415714542992
  1172   2      28.810808894820699      14.419466780519761      9.6264250673006355
  1173   2      17.322991520841761      26.997467562287156      22.780863224480392
  1174   2       5.533088924743387      14.936716741813891      45.387974182643759
  1175   2      35.358650573106047      43.334565787314851       36.53309611509728
  1176   2      44.412174064939713      47.833256385802329      34.737178772409578
  1177   2      33.400511918867011      17.300441690432322       30.76879067759613
  1178   2      8.9305338494296045       15.69742987192086      9.8499907523345858
  1179   2      10.689680655229969      20.127418292019982      45.547438793940017
  1180   2      38.144971647237156      5.1827448442717152       10.12239823509794
  1181   2       31.68243834707333        2.10057839079276      9.5407749581539338
  1182   2      1.6134549047488655      11.868091228886779       24.63909453448165
  1183   2      45.805445695283112         44.436195711421      24.584399988837518
  1184   2       32.84638806354112      46.666292262647801       24.92167976807152
  1185   2      47.210548629654127     0.49493337859391517      45.111286236079238
  1186   2      39.574432423328247      6.6738372061903526      22.816867751273804
  1187   2      27.395760352097959      37.034882117881594      12.997712305789806
  1188   2      36.232977387417606      21.623067546166258      8.1900317444307991
  1189   2      1.7465110936703232      31.071676146414386      31.171611090568689
  1190   2      44.351641852614279      8.8970719960285347      38.639841558477713
  1191   2      25.574667338964559      30.148701874766488      36.549849082158865
  1192   2      22.060553191832266      14.087804982693978       9.270569270537937
  1193   2      33.385222250599782      45.337073447922599      30.006088764571956
  1194   2      13.306034150402226      20.177190575339811      3.6334478205429308
  1195   2      36.747942747667366      34.412937222238597      3.3782596240664451
  1196   2       46.13962997059474      14.748043248550136       8.764174382008143
  1197   2      19.413011280530284      16.412579667536423      17.956603356675913
  1198   2      11.129587082521569      24.744157363035672      31.206025872469461
  1199   2      27.815552310253057      9.9114723240615703      16.535383896603655
  1200   2      26.467336813390702      13.663941884395619      10.278335916550949
  1201   2      1.2840895444271807      45.442814613244202      38.142544104908794
  1202   2      15.189181528548707      26.913415206099444      41.082766418811268
  1203   2       32.96113989050653      43.686938306544363      45.497269849664839
  1204   2      42.387712182508679      8.6795324987625442      28.105992502689727
  1205   2      26.426626907535621      38.956552500169863      16.728316513710297
  1206   2      44.537830527551321      11.103366964489085      23.767227177928238
  1207   2      30.502506762278664      11.207440955871816      6.0052835617725737
  1208   2      13.091859714003125      32.454582711689866      28.985651389261438
  1209   2      39.471698535478097      7.8823427154587957      30.313838682906464
  1210   2      18.861702651183606       29.43974955484121      44.138237927587539
  1211   2       44.40909948988272      44.693159872781635      17.450746195599379
  1212   2      43.786755266396042      45.153424151972828      5.0174865788680609
  1213   2      29.950415164560461      2.8844394881993329      19.411184973793777
  1214   2      17.280169073191509      30.455839518143485      32.140517158206599
  1215   2      45.897171209174047      11.967560794155865      19.931821089863682
  1216   2      20.377337292662645      25.092108485951925      16.460624622639855
  1217   2      10.575611760410428      41.055630109162664      42.536607800151998
  1218   2      39.914690320691037      10.308480361787922      30.166247131865841
  1219   2      38.586186732571576      17.484325898088844      28.643631870944446
  1220   2      44.588211680357929      10.956220126442654      7.7947301184280757
  1221   2      38.507223507683946       2.405214903288619      43.473883612482183
  1222   2      37.942634621813227     0.47494238083614237      29.449951031341133
  1223   2      29.485158878750401      42.996657541381865       16.63214902705343
  1224   2      33.815376166296844      23.026540146180977      29.897661384497123
  1225   2      41.959540880364443      1.3959859896047329      28.589197895112633
  1226   2      47.201791900683517      44.179231550060372      31.718053782075664
  1227   2      43.595874282523852      37.222682906976182       3.888783684767064
  1228   2      3.5004104858321181      17.576361414914402      25.683364015057101
  1229   2      16.822591225572349      31.749253539994786      46.264607564379681
  1230   2      9.4706355259918595      32.534105835522212      3.7244519101359987
  1231   2      38.427915937607494        43.2169431102486      33.857080408367445
  1232   2      40.231988695119597      5.0305122320413531      40.056103082108564
  1233   2      40.563194674964052      1.6529501509653648      21.455544101874494
  1234   2      31.510049589398136      7.1352551203121815      6.3615246386171957
  1235   2       3.510545537739783      21.272185927002429      28.320715685542684
  1236   2       34.37033469494633      43.385488683797433      33.297143432661393
  1237   2      30.743587077028302      27.803284740166305      32.170467374347723
  1238   2      7.9923589090023981      2.9583076635080063        25.5042189289574
  1239   2      6.4234652681512996      36.623814001304851      31.439067273438585
  1240   2      6.0526765051166214      10.316113386262765      2.9127149217074977
  1241   2      43.822365453305878      15.007257010252928      10.387934874612448
  1242   2      24.340761968500701      32.847528991427019      13.376626048725067
  1243   2      43.429144689957212      6.1220550032379126       41.66854217214965
  1244   2       7.307856365203282      41.028333473938432      31.512260665023561
  1245   2      8.9642733733588997      18.252886751683178      20.930117429529915
  1246   2      43.891104100380993      47.552946786068858       45.01711764824212
  1247   2      4.7246243335825486       19.01133334640425       10.55530329235232
  1248   2      6.2524118991941089      19.779514991854885      35.388775755004495
  1249   2       13.80328566150528      25.951419663943717      16.778662915906075
  1250   2      12.310271322221372      28.643183912491295      12.967786316663176
  1251   2      43.012753284482329      44.950124034142263      10.317092402361235
  1252   2      35.317707238850069      27.509317631092884      5.1669162924653662
  1253   2      14.223551208998899      23.954380347629471      44.108100583228619
  1254   2       38.90002580194168      4.6299372119521109      16.195889946284446
  1255   2      18.621723234379335      16.910559292803381      7.9411143256508971
  1256   2      22.533250845089789      37.416069491856931      44.112357960553965
  1257   2      15.337208721287189      17.467302345306479      17.968717473793852
  1258   2      23.356397425146916      26.861363925281481      46.028590722522203
  1259   2      39.166848469563661      1.9099143123259967      14.321890308636348
  1260   2      8.5080820786540841      11.451219869852693      22.389135524011817
  1261   2      30.608760799101766      46.635493695372233      10.999417736724347
  1262   2      37.690069068300829      25.074373786254476      6.9348899656176961
  1263   2      26.163717504280193      16.960675233362529      8.8858855116919351
  1264   2      23.002786645972009      33.475377489905085      42.539654336579417
  1265   2      38.907681838512403      2.3203792719193199      7.2017622737621378
  1266   2      5.4397151463686981      28.050640020856378      7.5067844991351462
  1267   2      37.440691334254453      46.186570025210592      33.475556858599141
  1268   2      12.851293278593328      28.812015666873485      23.298887866817793
  1269   2      22.124332220948329      26.137250711085333      15.078360534210033
  1270   2      5.2405962943870898      39.102390808297969     0.88939469100403679
  1271   2      45.478706238369199       4.051901263880362      44.735505526292627
  1272   2      1.4641656835194816      10.916185669457409      41.652472390716554
  1273   2      38.277660204937909     0.45142975170263033      39.381834046712555
  1274   2      40.212144563358351      3.6743199041287102      19.932277197675319
  1275   2      12.406939456104888      26.208383825304345      9.6450091226679362
  1276   2      24.496905708579497      32.690834233786859       18.51581606698846
  1277   2      21.512399496192799      35.960263965537898      30.004819363759321
  1278   2      9.8223667288920815      34.828846057036742      29.504051777650005
  1279   2      44.148467664407931      10.964853253278907      31.669343744510375
  1280   2      28.007375775394742      38.967759350387269       29.07313428169536
  1281   2      22.254897029465784      26.738505482684175      10.024935583739842
  1282   2        29.3500966062605      17.502931111824374       46.69896004595833
  1283   2      6.5996112587429714      6.5818442509893078      24.953222781073165
  1284   2     0.93381434084491199      39.342801175415872      3.2896198346993426
  1285   2      25.645038515753868      35.145153700971292     0.71045144111203196
  1286   2      32.706973902338333      15.602464745665738      41.011707081963131
  1287   2      27.174680363204494      44.278939746963445      1.3906792916864159
  1288   2      14.986007340342359      28.981196463349814      34.112268604843933
  1289   2      34.746085327949586      13.292960760512159       38.88533744517099
  1290   2       28.52289586006685      40.526470186629382      7.6477272717391198
  1291   2      37.253759625714345      12.492750361680692      32.104912708594455
  1292   2       34.55157397894115      39.748610214209023      2.5819046753285999
  1293   2     0.31806735754250881      44.044465631614969       26.19845365068651
  1294   2      19.442256789229276      42.043700726739104      27.482844936951064
  1295   2      40.422016003618779      20.852175062084363      29.590993124145225
  1296   2      30.249996958737015      46.845722059855071      23.020314056480004
  1297   2       17.22502763424875      30.856745599131784     0.54043705216975191
  1298   2      35.985929078147933      7.7771481507826277      11.703725927361212
  1299   2      25.534080822392756      25.196889175470254      43.478992539926558
  1300   2      23.633418418686908       2.232531128859192      22.264282673589605
  1301   2      13.428968891445038       37.04645394334964      39.212024525163194
  1302   2      11.591115361022251       21.90351645428677      40.955748712305663
  1303   2      10.881695355494717      31.846079842693058      24.887960052914785
  1304   2      7.0935094860001202      44.587205413215543      29.173081924517106
  1305   2      47.234469312314303      9.0310494507835823      41.590949627741935
  1306   2      12.946323159712858      30.024324617551045      25.550930412521605
  1307   1      18.937141609692496       8.457256915092124      37.167427663364791
  1308   1       16.14500852608877      5.9806413612263949       36.98357504503285
  1309   1      17.563760905376725      11.037285578704147      34.662333691176485
  1310   1       14.67665761976027      9.9910058542861044      37.418248186331788
  1311   1      21.648140350445519      11.637692214877843      38.679870100142232
  1312   1      21.843181514739893      9.5004872196514896      34.901045502052227
  1313   1      20.414446344737598      13.643194755158399      34.563386804577092
  1314   1      23.116491256774019       7.627327721818137      38.245196958843295
  1315   1      19.662813973754382      4.7047588763886337      37.732376432923303
  1316   1      17.172363158971358      10.100159394361382      40.347015472843935
  1317   1      18.130334902779907       12.91357469971561      37.931068712251772
  1318   1      11.743129841175623      46.955295241836609      11.088224085966681
  1319   1      18.429119968046457      6.7102614166691854      33.615893137358171
  1320   1      14.871698784054633      7.8538008590597528      33.639423588241783
  1321   1       11.96565887900724      6.8105705545003872      35.905805749554339
  1322   1      22.549917259370837      5.7510386008066749      34.976461937768001
  1323   1      25.400602698731706      8.3569477772609275      34.877515051168615
  1324   1       13.08134205759759       46.10641838732063      14.897912721254189
  1325   1      16.352180282121019      46.178387717394564      11.889813003520196
  1326   1      45.199200917675007      25.648640555307502      43.264094605682757
  1327   1      11.256614401534854      1.3680144309318911      10.761949814307739
  1328   1      17.862543332521859      6.4371435248079738      40.610544224826413
  1329   1      22.798306260598487      12.121680764697782      31.980343118026642
  1330   1      13.442963614052342      11.996508394566657      33.301764890766655
  1331   1      44.826312477426917      28.555963972218443      40.747065844767803
  1332   1      23.923297963686608      3.1710099371946576      37.481555909956306
  1333   1      39.889987139496853      30.721073285007058      19.571641609175842
  1334   1      20.922467986383634       15.39019025358134      38.114921330583712
  1335   1      19.847869709213001      13.370076863297189      41.558037892045341
  1336   1      13.319487690104804      42.997693459802349      11.947110374993649
  1337   1      19.940334407433163      9.6213448133108841      31.600945060229691
  1338   1      21.925660784124307      16.554278151800098       32.54843872744862
  1339   1      20.626746712662307      8.8839741599139703      41.577924907841151
  1340   1      1.1778361505855712      28.721840300974598      40.580200563682077
  1341   1      44.005186016686466      31.592776383051792      18.297826668644177
  1342   1      24.535243636061974      12.683971939295891      35.923955604986929
  1343   1      16.857025160745778      14.786734197548963      34.586917255460712
  1344   1      26.634296704439631      6.3514452369803713      38.993998346733747
  1345   1      13.655263981977049      7.2372877993222318      40.316302994030707
  1346   1      16.432933647208131      43.369990670379892      14.492944296519109
  1347   1       44.29693072663396      28.528770221815375      20.545680504258591
  1348   1      12.691331243069126      3.0580725157968907      36.470754519112859
  1349   1       18.65252802021184      13.830616460396659      30.987915562790384
  1350   1      16.951815233001351      1.5243235766029153      36.219933996145855
  1351   1      14.957548468513167      1.4318863331594831      13.726484725412856
  1352   1      9.2968284049706877      45.466337434829313      14.604704500225036
  1353   1      47.282698691251582      23.128076539879814      41.270183983105305
  1354   1      8.4404142622211769     0.16464857974885438      14.131386069887732
  1355   1      26.829337868733997      4.2142402417540179       35.21517374864375
  1356   1      44.005712912075339      24.337565291779164      39.242403341234549
  1357   1      12.351174176791574       43.56097835849409      8.2844658983845019
  1358   1      15.578434528685584      4.1043522402149373      33.714840023957557
  1359   1      11.473106854237393      3.3453428373410592      14.074088698414279
  1360   1      45.639122609098983       29.17340362567451      44.424244486802976
  1361   1      25.908624340377749      10.103943275683868      38.429049577175235
  1362   1      41.948211825352018      28.196857045959462      17.556218819719628
  1363   1       43.39607696860962      21.652344381072727      42.535722513166718
  1364   1      37.632208645996691      33.864268244515316      18.598958775196973
  1365   1      24.143845889656607      11.746845754953119      41.608637386654379
  1366   1      10.592278174691472      9.3905992181124098      33.400711777366041
  1367   1        47.3986898778859       26.00769041750771      38.768604890358411
  1368   1      21.131164880082878     0.69439438332892323      37.297703291624373
  1369   1      7.4721007489079474     0.72793347844058398      10.468741593278583
  1370   1      40.870356247320487       31.79592160814958      15.372148486462617
  1371   1      8.6052924180949155      46.464231444978452      8.4542608341929721
  1372   1        11.5538602193245     0.53694579032638567      16.677219991413189
  1373   1      42.266702452720878      31.538957446788949      22.505802279700763
  1374   1      22.158519512965469      4.8139124164639053      40.661143719435451
  1375   1      9.3310795646785056       43.42533437618652      11.474757708961473
  1376   1      19.836621896396792      44.264931213212989      11.542209030518773
  1377   1      40.707301612823045      24.743016896293959       42.04260969875638
  1378   1      19.857855138048748      2.5675538811622753      33.953551834833306
  1379   1      16.626856688177504      41.196172293882931      11.362363936629198
  1380   1      15.826823529913234       10.47499440410604      30.718721204216202
  1381   1      23.638684374205948      8.5443694824991887        31.3020438093819
  1382   1      40.168818016581525      27.361606954440258      21.706990776192804
  1383   1      35.406493359793714      31.119396271380801      20.125395071989804
  1384   1      47.601864066092254      23.939909160257344      45.739102704325745
  1385   1      15.187036782280217      3.1672260558721681      39.399521805625007
  1386   1      41.925921797608218      28.172683163621691      43.189771417753107
  1387   1      14.954178053439055      14.907591791208356      31.286816813638172
  1388   1       40.36855766321537      20.510057887347191      40.450669306646333
  1389   1      24.834026063207109      8.0838298853997177      41.872166138636857
  1390   1       16.13568782941848        44.2010593109854      8.5776741194136576
  1391   1      13.950985255698384      13.743503892989597      36.853299416773268
  1392   1      6.8640564132919977      4.1222503617831077      13.272499780860764
  1393   1      26.911817138118415      11.268031173902624      32.862566974040135
  1394   1      10.200880428286105      8.4534730337696402      39.085393559033491
  1395   1      42.137537121640335      31.646636487439679      40.253953030357451
  1396   1      11.158852172094653      11.266888339123867      36.669446798441328
  1397   1      45.632680904108298      28.038132291209038      16.953744190665613
  1398   1      39.930340764051579      34.377390918408487      21.500471350593642
  1399   1      45.353850027023633      31.397598621775835      14.818395023648648
  1400   1      46.629436426492298      32.552260146453214      41.475437937283829
  1401   1      41.283492663120867      34.965771145767555      17.981037516062699
  1402   1      27.784462614592595       6.835433786800305      32.294471364618161
  1403   1      13.572510916356624      43.101531370218161      17.682602538469727
  1404   1      2.4725018980015392      29.324719625923176       44.17010131714045
  1405   1       28.10264761076813      2.3410807439206653      38.559325205434817
  1406   1      37.436721633706803      28.109209046407226      18.165273296547639
  1407   1      12.876386978527748      11.723390502705453       40.29641597823489
  1408   1      47.434123370993191      20.254329175158681      44.592227022689713
  1409   1      46.996540402421772       25.44574545952689      21.027506328575321
  1410   1      9.1735257954035099      4.3339550006346581      35.721953131222406
  1411   1      2.3964563353707455      32.151506568302331      41.727362282678811
  1412   1      17.812149906604375      17.407927742595248       31.66621487143513
  1413   1      5.6697354554375332      29.627463959988138      41.801685470608454
  1414   1      9.5922168476506862      4.7959539285406318       10.69048526700025
  1415   1       41.79879317203266      27.413677478492907      38.662012638247411
  1416   1      11.211969571265213       41.97472328498695        14.8583611403755
  1417   1      10.891060601836603       4.790457164216237      39.348922311015968
  1418   1      19.549087282067866       17.97021891719336      35.609827358395414
  1419   1      21.926030682023924      14.383589545620138      29.039444484629037
  1420   1      30.386759052725818      3.0707007993634563      35.191643297760137
  1421   1      20.551448248720302      18.447459354960749      28.886135000710198
  1422   1      37.432879873647536      26.020000357042804      39.880997863468096
  1423   1      39.108687665593806      29.354802376747337      40.879859380549959
  1424   1      23.828507891431038      16.433420558140703      35.848539169271156
  1425   1      18.712721627212424      47.305195802625775      14.714054401614423
  1426   1      42.001967360239007       25.34589622124254      45.632510452214746
  1427   1      20.156468461043932      43.484271331841285      15.298058704960464
  1428   1      23.415276322040569      1.4240144387717137      33.930021383949693
  1429   1      13.580624973076983      4.3683130121564639      11.162837933032426
  1430   1      38.541323129159693      30.916251046283008      23.051073254171371
  1431   1      35.819629775594088      34.289245808998771      22.734284101589886
  1432   1      35.397004833423757      36.890720993788818      19.928592315467473
  1433   1      4.6794216380442197      26.248607439209437      44.750492020127595
  1434   1      40.136331309494601      25.026184284118742      18.647099120864368
  1435   1      27.536073613364945     0.46479162290920323      35.290590184359523
  1436   1      18.556503761978352      39.974494089502997      15.518480331782069
  1437   1      44.208887100281686      22.269784034528797      46.212901155201891
  1438   1      10.265141918283922      44.903052536137579      18.267348976834185
  1439   1       25.53760460271441      13.161212377063276      29.200263247301709
  1440   1      37.144976923759302      31.173215207643644      15.917419460933226
  1441   1      14.388675168157025      9.7045481526250406      43.178631724023788
  1442   1      43.565791220651363      20.812802221412156       38.08225346011433
  1443   1      20.812979883907346      5.1887474262085682      31.032849450807717
  1444   1        33.0701316711244      33.957829743000339      19.120064142882693
  1445   1      15.640590358668199      14.170221137811442      41.263796661249636
  1446   1      24.926490761427274      4.3350978354134106      31.915073306821206
  1447   1      36.484348937825246      27.520331709190682      22.309465405246815
  1448   1        14.2663153430861       40.06936420865172      8.5381225385349708
  1449   1      22.612073089353451      15.816907498403186      42.525418575060073
  1450   1      21.360157898842282      11.351234513216779      44.440253637834232
  1451   1      14.696411185540988      40.061266780805376      14.510757167374084
  1452   1      3.8666115063721538      25.631167785753362      41.073313378092422
  1453   1      43.096071533523464      34.540793581284092      13.845712189669779
  1454   1      18.641420335971159      1.9510408214247601      40.630431240622229
  1455   1      42.932862730450893      24.762430078657086      22.230673883012791
  1456   1      45.029486665633272      26.488182714968065      47.717563658735138
  1457   1      31.681114036232529       30.49668987087486      20.670666046460418
  1458   1      9.2196729766819736      43.984827735010967      5.6189972411962126
  1459   1      5.2968470151894431      32.534787376899075        39.2846567096935
  1460   1      25.624010750897092      15.477302820988402      32.249537476600821
  1461   1       43.76896540885771      18.745020964161782      45.052751274081672
  1462   1      6.1653272048610859      45.890186811346197      11.939235843036744
  1463   1      23.369595497508065      46.661175087012722      38.039233226861285
  1464   1      43.909986408800492      24.579175712196605      17.949445320061763
  1465   1      9.5579656879428665      6.8369569871834255      13.820432058263814
  1466   1      36.072653637523729      24.342868903248938      19.850266675301839
  1467   1      37.678452156776515      22.451182785601617      42.668516048948888
  1468   1       16.99539419443607      12.171247425443578      44.609495523269416
  1469   1      43.432202869056304      32.249515812388253      43.843853783815831
  1470   1       16.88799397114968       2.566791846237038      10.578091494667973
  1471   1      33.308608923654361       26.94204577903211      19.326583568481851
  1472   1      19.487279419029015      41.464631594044661      8.1727056946785801
  1473   1      8.2022686297139611      3.2733735072671228       17.08218841614827
  1474   1       25.10181763346516      14.560261060307347      39.192690626062223
  1475   1      16.667201643520691      6.8976831219074501      30.040421895571455
  1476   1       38.53399455865118      34.634355079769122      14.366817557355503
  1477   1      29.521399990056086      7.3977249613984171      36.238083851578452
  1478   1      41.061973967510355      21.710663405828932      20.922057743180552
  1479   1      40.495686288790921      21.269063572475975      44.978428086152036
  1480   1      40.292512100584574      23.336844829726349      38.007930272184694
  1481   1      17.795898412091884      8.4753041228796668      44.096929333767392
  1482   1      7.7051748890750158      8.3443194936943641      36.156626272521336
  1483   1      36.610383928716345       37.94859453635685      16.416388543542816
  1484   1      17.750756957361872      38.155907704470145       8.190518565533548
  1485   1      1.3810103387919264      26.654059043724228      47.550698377649411
  1486   1      6.4264644878332646      7.2608063637003113       11.15496340107552
  1487   1      19.157689535662499      17.033092732850591      41.294509140062857
  1488   1      46.750196232424024      31.140634460415207      21.952048816886794
  1489   1      17.848765544302925       42.50498243161325      18.175389985714133
  1490   1      11.457637237361205      5.0635750560774477      32.354271223547727
  1491   1      16.661983996451411      16.923939192775315      38.365741853550716
  1492   1      12.385425336499392      41.519975299851296      5.1545191071209375
  1493   1      26.912187036018032      9.0973425677226665      29.353572731220552
  1494   1      11.629682496316722      46.804066341118045      6.0742215076727373
  1495   1      44.492417738923862      34.283829419923464      20.979365982907925
  1496   1      33.029778046569689       30.30151210959891      17.191234401464889
  1497   1      25.612903066656415      3.5977271820164978      41.892053154432674
  1498   1      43.356157306425509      35.076302754767411      41.401114749354178
  1499   1      42.575477403258049      17.433945700633448      41.031060009633478
  1500   1      21.607677172982303      46.848596792250973      34.463761985074576
  1501   1       12.96885167674791      7.9746584527191455      30.339323146419243
  1502   1      47.230949182786844      22.322110432409051      37.621729208722371
  1503   1      20.903111316123816       40.59962335527802      11.855151383873602
  1504   1      16.694070930180303      4.7406102227340003      13.708671854557888
  1505   1      17.909513105173538      16.056548388449823      27.760454321751027
  1506   1      19.781224788783028      15.408237461368881      45.044423000986328
  1507   1      6.7506090684330964      3.9710214610645389      8.2584972025668186
  1508   1      18.459698400960608       47.20135789220997       8.978562238138343
  1509   1      34.423283570193696      34.546209970359406      15.600630308351745
  1510   1      35.089460391613954      29.024417225410435      39.970216754163985
  1511   1      44.834386607558159      21.738199534874784      20.346141572151179
  1512   1      11.681045289526583      12.183930099804922       29.72629364897994
  1513   1       4.476247449837869      28.316388696459807      37.779994206160254
  1514   1      39.006136146484906      37.685337440752662      19.375205031523013
  1515   1      16.398112766822813      45.014488726420979      36.777611313050848
  1516   1      38.331670726864957      26.697011492076168      44.293027351367556
  1517   1      16.782276124575908       46.17029028954822      17.862447632359309
  1518   1      39.277066104005755      17.839397305148246      43.831266367155294
  1519   1      20.637854396902984      20.763549798885872      31.935409230009313
  1520   1      10.995477118562674      39.997394878577786      11.546222256268964
  1521   1      22.848699686515967      1.1508965469105026      40.924672471417935
  1522   1      3.7262189902112883      3.6311865649249535      10.638536529087052
  1523   1       15.27739503316031      0.6512264517877776      17.482334399854548
  1524   1      42.900584521233569      28.785734383176006      13.412026711020451
  1525   1      12.840691582830988      46.158028168811541      36.801141763934453
  1526   1      18.070603522009016      37.375247823098441      11.946368239975239
  1527   1      22.895669459167642      10.770301410552349      28.074582568342539
  1528   1      3.6962632966122095      5.8763805373997666      14.578735804407355
  1529   1      1.8002558698193039      24.330311579270102      21.691855116403367
  1530   1      38.006730134116751      37.691630374996208      23.550042336780955
  1531   1      1.5214249927346306      27.689777909836899      19.556505949386402
  1532   1      46.256547986244207      35.459583563364156      38.958409176368875
  1533   1       45.96845436906861      19.104070826361998      40.557261558757332
  1534   1      18.566121872029157      11.514526016471534      27.938641333491269
  1535   1      6.6837812512917987      5.5906014387304896      39.054681080220263
  1536   1      28.624840728200063      3.2581225046017153      31.616172055973419
  1537   1      32.168345758469911      33.187742907746539      23.352205360724163
  1538   1      4.3405995487983455      1.1517828549574656      7.8032729360902895
  1539   1      38.772471811181134       27.61857111580089      14.573336982954665
  1540   1      29.130002243650718      6.4605987770556474      41.922765633245902
  1541   1      25.753455413368954      45.139661096552103      35.456189540310831
  1542   1      38.446123521273726      23.902650375427829      22.702691905588949
  1543   1      16.373833461925692      41.092334383467119      5.6268717731531188
  1544   1      9.8855424300605286      13.140047836957224      33.325295341650261
  1545   1      4.4520061367948784     0.59228949613301274      13.659033403855551
  1546   1      47.730565340247658      32.215482783557732      17.752555694173569
  1547   1      9.9184021851128819      2.2168912854478799       6.952261179020228
  1548   1      45.435948420892629      31.241184882924884      37.453746672835635
  1549   1      36.700851269988952      20.560474919028302      21.396078664326197
  1550   1      30.523760956708522      7.8749653991658048      29.514391493893232
  1551   1      24.767381142777136      10.121990483471404       45.35855124757785
  1552   1      47.069358117916273       36.07702321682023      42.635587818404048
  1553   1       30.89478069437186      4.8176962977863953      38.743177823766743
  1554   1      45.394203651578351      35.053916255177271      16.747224765066456
  1555   1      22.399772721428739      20.576128093647611      35.510880471796028
  1556   1      9.6572649021407102      40.846271733093772      7.7365336209814508
  1557   1      2.6080716594028654      35.625459892120318      38.791543895283155
  1558   1      23.966876925121326       13.81793378603532       45.87111743707986
  1559   1      39.761906235682254      33.600631083221884      42.504370682968641
  1560   1     0.76304663834710573      27.315668234406989      36.545521137110399
  1561   1      4.2394999466202439      22.723844368842418      43.590342139007376
  1562   1      16.939874328029813       19.66983652351761      28.725316238037522
  1563   1       40.86086772095053      37.567246330557595      15.175345729940286
  1564   1      36.457823701508381      32.333223815727472      41.039241704051022
  1565   1      4.4177549770870659      2.6332925547758061      16.788980195119116
  1566   1      29.624139844898075      27.100770533782534      19.929058197535863
  1567   1      31.972858746180023      27.432683709638447      22.918519882074833
  1568   1      28.814664245425142      11.147173580243228      36.162667415862678
  1569   1      19.374831522151144      4.4183011747275698       43.49275997061531
  1570   1      35.027588192691084      25.429604224581752      42.827898372449937
  1571   1      8.0723986038547864      27.918732564937983      44.276693569251435
  1572   1       33.54227325895814      37.008812103983885      24.128451617050203
  1573   1      36.698261029841319      21.861173158180822      39.111186205799143
  1574   1      8.6934374884729912     0.26848649016465603      19.866878233363813
  1575   1      15.016257750188132      39.280606899433671      18.266606841815769
  1576   1      8.5612709734678223      47.694826527864194      36.562429953058711
  1577   1      41.536516525050502      25.019394240017718      15.097020089774645
  1578   1      8.2155540515949603      1.5205396952804304      38.137899891814556
  1579   1      31.585914428346555       23.48308920001968      20.322284697877997
  1580   1       41.96584145979233      14.748724789927007      44.324379181565646
  1581   1      2.2693277097951938      31.392500883173547      37.199603503173115
  1582   1      35.163326393243288       40.01666399150794      22.397873893358785
  1583   1      13.579965518035042      16.800772994369005      27.624513086899746
  1584   1     0.16543241188895999      31.603059704598959       14.35168189756607
  1585   1      14.954547951338668      12.736903185028398      27.777822570818593
  1586   1      13.342479340569769      7.4770379396747373      14.113640279292964
  1587   1      20.115661279471052      19.846508038204824      38.878562379470708
  1588   1      35.088002732424854      27.777295870551313      15.175811612008669
  1589   1      43.319173731013208      24.607138778718515     0.52293134335222557
  1590   1       29.82018241720122      2.7975829075022447      42.186294385228379
  1591   1      21.164248599095991      1.9702429076321279      11.070878941912373
  1592   1      31.897973492112527      5.9817841960051537      33.176695220631657
  1593   1      42.340711309846682      29.578855230189305      47.224450844324792
  1594   1      42.679838868521259       34.70880698440692      25.114691309300838
  1595   1      12.577604551382613      16.323532556601624      34.348205444584963
  1596   1      21.981550548430182      6.8850004475461049      44.923623769860939
  1597   1      5.5000212033957983      30.467006119648708      46.255154523660835
  1598   1      27.598229443347559      10.530660520505712      42.839546821651595
  1599   1      46.459722174450562      33.391802306113789      45.928906990336216
  1600   1      17.955008030742025      2.6884114748216734      30.653451393010766
  1601   1      7.9002160533693839      6.2071144984680089      32.377801674431339
  1602   1      11.669937605285909     0.30435446083301759      39.368809326811785
  1603   1      4.9941761483219853      5.1638841939086451      34.644183835743888
  1604   1      20.518910058147192      44.055265910558461      38.138180113460677
  1605   1      0.2324407734447792      37.579454487902524      41.041961547894338
  1606   1      46.171628557274964      17.036289569111624      47.527759372724667
  1607   1      44.996026729468653      27.716421812557869      36.293596791715416
  1608   1      24.880995835858787      17.703234749041563      29.022076235561467
  1609   1      24.881179834794384      47.401569877474458      32.515290906913229
  1610   1      10.824415681406631      6.8286177622879247      42.835307419956955
  1611   1       34.42612425197008      30.044547948238275      24.324888194703025
  1612   1      47.029027109508689      27.781168129848407      24.087397983903752
  1613   1      14.347068708173207      37.260967161637041      11.141253831533884
  1614   1      22.988976255158732      46.708646864020864      15.206841848858828
  1615   1      24.783632637289628      19.054614103186992      32.927836785245574
  1616   1      23.633466727136664      18.570625553367059       39.62736376736116
  1617   1      37.974177514630995      21.318638359466636      17.965734364440227
  1618   1      39.066289570671181       30.85583869093815      45.062839009036523
  1619   1      15.010067817744925      5.2383140869543627      43.662001856050495
  1620   1       19.94070430533278      7.4506562071309244      28.091950817410108
  1621   1      42.257213926350929      37.310282169196967      22.308999523178425
  1622   1      27.490392788832445      45.701952271150212      39.399802027271122
  1623   1      6.6029191303198171      42.751630809428988      14.056772222821987
  1624   1      40.538923174411096      36.258421967893049      39.091202712151038
  1625   1      46.777349455696175      21.393570463891031     0.97399582912572003
  1626   1      22.846527657042991      17.157332804101998      25.823198964534683
  1627   1      2.8112458476092161      33.557678634869944      45.762041709250489
  1628   1      2.5990931643602688       7.292804686388477      11.013144968403623
  1629   1      38.493640934096462      30.978037446367686      12.437987815937696
  1630   1      6.4894717854609159      42.600401908710424      9.0427696445280485
  1631   1      6.4714808833670929       10.34982203397492      32.040142976956211
  1632   1       43.34455803075241       27.93989288459883      24.689872612957764
  1633   1      11.642065413720106      41.966625857140606      20.830995769214617
  1634   1      6.2767337928576197       45.33069345252175      17.794996310802006
  1635   1      39.073891915799393      19.907178562398617      36.860768553187953
  1636   1      26.346314252836393      6.0649875353193066      44.754381884425754
  1637   1      43.794738803096585      17.854093096717328      21.307204294145837
  1638   1      13.833648199328792      4.4721509225722604      16.898330096508506
  1639   1      2.3594727599584511      21.682342592253434     0.84917887667685132
  1640   1      34.201764874583198      21.291102230420783      18.541650535469604
  1641   1      34.672468421967821      24.349658947349958      23.400345706391555
  1642   1      15.428289990743487      18.929441733055874      34.249258557985584
  1643   1      10.840667175919123      15.761241382003513      30.404592957624679
  1644   1      18.259657280293883      36.799603100779365      17.674905069530574
  1645   1       8.836474007468011      10.080044969807377      11.610187667552045
  1646   1      6.1096571468615082      33.152227030355149      42.961835351728674
  1647   1      12.886372407363488     0.92086752057053756      32.691929921022854
  1648   1      37.049777315873335      24.159614536788457      15.569038112350809
  1649   1      30.610167104891204      10.191055843090929      32.563665723192344
  1650   1      21.767067399033312      45.399836726290545      8.3938157997738898
  1651   1      47.403870116157748      18.648709543681182      20.753817010201377
  1652   1      41.762667271585983      16.816506047177384      37.353881367598305
  1653   1      16.906134408468848      46.761484224843919       40.32914583905746
  1654   1      23.552278226023269      6.2282790385740618      28.252769580082784
  1655   1      36.436652637885331      40.774827431946271      18.967529593472808
  1656   1      2.8724337593739548       4.853960718705288      7.1311199946134396
  1657   1      13.378587875387243      45.275349746715122      20.813182898359642
  1658   1      9.3348934175730189      31.136772170985033      41.341161219216495
  1659   1      3.5796496785897931      25.165561670789302      17.541083159930196
  1660   1      38.863115382464827      32.923619948188517      38.092341195069181
  1661   1      29.867152189852899      12.416987771144091       29.33620448215299
  1662   1      21.222974342211547      40.136227586175067      18.482810554633915
  1663   1      1.7677691627323777      21.994888908948582      18.631963461074939
  1664   1      38.128496538658609      28.764792749326539      37.322529537400214
  1665   1      2.5017941005582656      28.764626232979424      15.357012826673184
  1666   1       33.27612221656743      24.606623108710593      16.266691913153416
  1667   1      6.5378710758297931      6.7013130048758596      17.010723868840781
  1668   1      7.9564074172204666      25.039118687310083      46.778272661998329
  1669   1      35.322645044909279      29.776678364210664      43.704284629520146
  1670   1      27.385929075422851      15.289881115750138      35.825008718387544
  1671   1      40.571731851421717      18.442276630096824      47.421167120613674
  1672   1      19.894839481864679      22.989481726939037      28.707947988969948
  1673   1      30.576512540779632      27.689647870999078      15.784866088836687
  1674   1      21.653357997514803      1.6114361440099776      30.354550142162971
  1675   1       47.35518890867381      25.686359592707561      1.7192031264216192
  1676   1      10.023911463750817      10.524561064851836      43.347873609458972
  1677   1      14.797475612996511      45.049936165501379      4.7679854841261502
  1678   1      23.696714472834159      44.178158521910611      12.549932194926761
  1679   1      30.771999553069524      33.444707069107167      16.218551567486021
  1680   1      28.492753755484877      46.179192708917597      32.676109669585898
  1681   1      7.9826953227537985      13.260905430616617      30.025194899827724
  1682   1      36.901435218047666      19.793391900930452      46.081684019766485
  1683   1      21.833196085904145      20.303010201786403       42.50553155926427
  1684   1      18.817246377088896      34.490599846535176      8.5034609188883756
  1685   1      37.609789941084514      37.942301602113304      12.241551238284874
  1686   1      15.762900605268008      36.395958922870406      14.823699520728907
  1687   1      7.4171924374717726      8.0578617920333002      41.917009810213344
  1688   1      42.164714157515725      21.237000255797085      16.642832078799003
  1689   1      39.028554851397089      33.607304083154688      25.732612568435115
  1690   1      44.862438377873595      39.153135403533966      42.055197115416902
  1691   1      6.2424826331498071      47.371696511164544      20.924943102065569
  1692   1      27.832684011037102      11.871085826204524      26.137327211126198
  1693   1      45.600194197021374      25.702709620887518       13.89385253533718
  1694   1      12.004267124147804       8.325914794190723      10.303951644005453
  1695   1      3.2491861292269295      19.344987848063717      46.539148688526517
  1696   1      37.636054061853883       23.95221909979243      46.851495677435437
  1697   1      19.681202459998396      39.290813217547701      5.0421253347886656
  1698   1      45.852463182434292      16.224456948734101      43.058840651504227
  1699   1      27.881825813161754      5.4840544326548786      28.388710814934061
  1700   1      45.401532222086857      31.335812221691157      25.431480461882323
  1701   1      34.000658628023366      37.147685155149446      12.794938522229327
  1702   1      43.192902780403273      23.720125638323097      35.565224699199383
  1703   1       22.89548356020363      42.639325145165202      35.076791482513883
  1704   1       14.04982289038356      38.092035802242556      5.2259836544284317
  1705   1      30.087973987459272      9.2740140824098738      39.506818872653739
  1706   1      33.766980187842897      40.273628152868568      15.264220100120639
  1707   1      5.3923016532089765      44.016826057699141      5.4771788085243118
  1708   1      32.145927053557749      37.265776265344513       16.99479782381206
  1709   1      3.9195778711513487       3.143770803624494      38.087300397205524
  1710   1      24.798330667510356      42.518467551505815      38.376891924336419
  1711   1      29.212444544596554      23.923307727840793      17.469859467590879
  1712   1      12.403348791465882      2.7716148141358272      42.231138056804859
  1713   1      18.441969165404345      39.602742694827114      20.921024182684267
  1714   1      34.010147154393323      31.376360432741432      12.991741278751661
  1715   1      23.661005274121862      2.3738870855410847      13.922084490714038
  1716   1      1.5617786172893471      31.346095543238327      21.485335690804209
  1717   1      44.633418053196181      28.631144492236331      1.2358537677001968
  1718   1      19.439304413108136      18.386576833847371      24.904901354791068
  1719   1       5.719848512383872       1.411386155205149      35.209132605302415
  1720   1      16.613317565093197      7.5490072697486683      11.105540561558971
  1721   1      46.525836855037142      22.387188742597715      16.168811157653366
  1722   1      21.610849533799243      38.069135013167767      9.1982417299415378
  1723   1      47.412074712878791      28.873382382728241      12.802972234192442
  1724   1      5.8120839292462083      9.7402100736677966       13.99022699407228
  1725   1      42.608839811286074       31.84974054441242       11.16417287540604
  1726   1      11.292722936352321      39.166326237972271      17.461492433374417
  1727   1      12.809742058097775       13.76155110077714      43.782801087175883
  1728   1      38.833067839107194      27.852244885046595      25.298927089785781
  1729   1      38.862276591767284      16.433225238580633      39.796586940583616
  1730   1      5.3860684904002945      2.0700076560840719      20.451624671728258
  1731   1      7.8692244156484374      29.986513822188353      37.306195755284108
  1732   1      32.486677172939594      31.494242100784756      41.824592678674861
  1733   1      31.620453058433743      1.0651982590828992      39.308126593325269
  1734   1      23.210814232864823      41.578912255506054      8.9778201031199316
  1735   1      13.666371666217728      19.116863438294136      30.673787316198862
  1736   1      31.908837719961959      27.201452971968223      41.079385381378955
  1737   1       40.54366102323057      18.229148368273034      18.373409802490425
  1738   1      18.842351537436926      21.719667536038177      35.534410922679641
  1739   1      20.417605744016111      4.8548908841953917       14.51378626299924
  1740   1      22.782054766085999      3.1890571449821952      44.411057580358914
  1741   1      39.065450779973631      14.365443981330266      46.767084754550957
  1742   1      41.192141744499544      40.504250674367597      40.715714014569713
  1743   1      12.186206804977243      15.386406372258854      40.032887226252413
  1744   1        39.5442550108624       18.23544130251658      22.548247107748367
  1745   1       16.37400154484817      16.637481491114251      44.126125391242716
  1746   1      7.9411313467417877      41.902753954913017      17.866460858109498
  1747   1      47.922183060437533      22.130224581237087      23.302464950891505
  1748   1      20.060697062696036      13.920342768176692      25.388271486817771
  1749   1      31.898343390012144      3.8110955898251953      29.667700977812071
  1750   1      3.6737170821414238       25.70634830577125      1.5621013010248224
  1751   1      43.567772630457625      38.550256078585392      38.465296361958536
  1752   1      33.339073228779249      34.105072563113936      39.290728712980027
  1753   1      12.612311459763752      4.9315979108481987      7.5001934564232773
  1754   1      10.526279201256095      6.2736720884916917      17.483076534872957
  1755   1      4.0363257584138932      24.791625626092795      36.619844325040035
  1756   1      36.934529710169421       17.43453192130918      18.926797086434885
  1757   1       36.75288055372657       36.68029795535638      41.915627961121224
  1758   1      8.1576237994443268      43.880082361322181      21.178599742216036
  1759   1      24.425460767102241        13.1003298559499      25.219029601382587
  1760   1      41.722747609401864      30.240464420872065      36.219273603785773
  1761   1       25.29667917189974      47.687935764248891       12.32951056810516
  1762   1       3.902737406818829      36.228339217068893      42.381444648741521
  1763   1      15.502157990157469      41.879853165838227      21.838718933622605
  1764   1      33.689235347885635      24.940840030315321      38.522443483951733
  1765   1      46.790549856978743      34.796952093816635      23.880878558304595
  1766   1      29.942630472266941      30.442870934612021      24.878641657516994
  1767   1      37.832998843285722      40.517863270585636      26.101183386710947
  1768   1      1.2862537769774591      3.0571419312926933      14.123511537930828
  1769   1      8.8553407992279798      8.8283080435142978      29.457099290405758
  1770   1      43.470593021643523      38.368155711764999      18.796795751253768
  1771   1      33.892409536091989      22.873058773064951      45.492941297919074
  1772   1      18.781972682683701       43.49297473596036      34.194567626500394
  1773   1      45.008117898389187       18.91196663928536      17.795000522221176
  1774   1      36.002644364830246      19.116380765897091      41.669654531867025
  1775   1      21.085484055550374      45.931555031569935      41.406915134535964
  1776   1      19.137109403176627      34.027204077432231      15.131120089648684
  1777   1      3.0460119410205793      21.412769105314091      39.568650874559182
  1778   1        36.2358624405963      34.121232405875944      11.465304981958834
  1779   1       43.22902868084995      34.317297069638627       36.87335596984849
  1780   1      7.7532332290141204      27.106899944560453      39.807774848031002
  1781   1      8.6069517980003276      2.4576658796231952      32.453218110147105
  1782   1      28.056966786235623      47.578241392161679      42.668537048346408
  1783   1      40.496525079488471      37.759458282083862      43.274182340637594
  1784   1      39.887146457720462       35.22273530712819      10.847383722824555
  1785   1      23.911357058715062      21.316522884109354      29.986938151847966
  1786   1       13.84149715322209      3.5420610656168252      29.771227536997273
  1787   1      20.097759179368968       5.635550765567098       10.75793658855755
  1788   1      19.406526053941906      44.273028641059334       5.569574401679664
  1789   1       21.49631493722524      37.697383618491884      14.600785580843732
  1790   1      30.284767830832138      30.753654032235495      13.537012253222274
  1791   1      43.561060362916116       20.98003609443645      23.776485872037149
  1792   1      17.826847936825104      40.871781190914078      37.115270010525975
  1793   1      23.582179876260156      43.806407127234728      17.952476045828956
  1794   1     0.67187321839040159      5.5365456412601759      16.958775130927584
  1795   1      43.770946818663973      36.482474821335018      45.435794175925871
  1796   1      40.402482351885311      37.428373279392034      26.508858824761155
  1797   1      11.678081786685599      10.904977437283469      14.042175731985472
  1798   1      16.939504430130199      21.840525129697568      32.234310480857104
  1799   1     0.40390966441891196      24.587275740630727       14.55820132316523
  1800   1       35.04030643248494      41.031791593306906      11.833875800234669
  1801   1      37.888059210325672      39.236843406873184      39.250585035652094
  1802   1      3.8981403059586528      28.507662071618789      22.490666619911323
  1803   1      40.742097362617443      34.190640710642683      46.061700526118379
  1804   1      15.810572035400739      1.5423707843904526       43.14943566654847
  1805   1        6.97950252501313      12.096817532397859      35.591677502962824
  1806   1      39.926196765202647      22.937013652989965     0.99672979422838082
  1807   1      28.953033279115438      8.5316868081378434      46.185245683671383
  1808   1      3.6207954440062173      7.7439128575206677      32.139089863555597
  1809   1      13.547427327461932      42.408579549966731      36.876558199650233
  1810   1      14.540991749142584      35.087148785140087      8.0106734716439707
  1811   1      15.924186728482388      9.1236150499606126      26.812960654532098
  1812   1       42.33872990004042      11.841401373016071        46.8414079424806
  1813   1      1.2173308683167521      31.134235738109876      1.0389831626873232
  1814   1       29.76978899128374      13.768367125289521       33.24196503183709
  1815   1      29.753537496771248      4.8357435055739328      45.672679494169365
  1816   1      21.384269120816917      39.728241748523509      37.091739559642363
  1817   1      23.345484275533426      18.284167851705995      45.387747305053161
  1818   1      34.466477876524792      33.700865581639704      26.253717936120836
  1819   1      38.128102885364299      41.423816639669198      14.790199178975001
  1820   1      28.897513412709174      16.030275906211877      30.301066398439481
  1821   1      7.8257234464363385        29.6651829973882     0.25679399134732317
  1822   1       14.84421023691357      14.307453045716708      46.981678358202672
  1823   1      39.524449090764705       41.16685247830857       21.92385297221314
  1824   1      11.233622751069888      36.888669951059512      8.5954199100084239
  1825   1      28.619623081130776      13.284378575469585      39.941492013952683
  1826   1      32.770618968586703      1.5491868089028338      32.608599611209684
  1827   1      20.642368701013272      46.083517598245841      18.870170796767301
  1828   1      34.535128760778065      43.799057975728573       20.85206190433442
  1829   1      8.6691076279829371      12.523534777219705      40.002174747439192
  1830   1       2.436375997554864       18.72754819460765      42.861970046491344
  1831   1      19.830366590907676      9.0212060678192358      47.295806604794187
  1832   1      45.649288994227945      18.292238205984475      36.088342837536885
  1833   1       14.63619444229705      45.201910431659243      33.202140071264132
  1834   1      42.135555711834073      13.909182630266439      39.870910128513259
  1835   1      41.467865640797235       14.92120184592885      20.498676121561054
  1836   1      36.519695900431245      35.928036816556144      38.181560085765064
  1837   1      31.673785465724013      34.214793904360974      11.986410349644553
  1838   1      33.659224882796664      22.120797634264719      41.758873422562914
  1839   1      40.627189280770061      40.693189328276716      17.644627307831591
  1840   1      21.124949293829903       35.46988874676321      5.6261296381347021
  1841   1      42.074246816243125      38.625119873125627      11.663141958015629
  1842   1      10.938030374488276      14.409862027858084      26.498832407940576
  1843   1      0.6599927046348576      30.576008707984531      25.717476908645679
  1844   1       31.14652104118958       37.27206919958806      21.169635129070002
  1845   1      3.1109814330401999      47.795545887681428      18.259474444877277
  1846   1      6.3954879376190501       22.76156340624248       2.045450659746245
  1847   1      5.9283685798717443      25.497474846645222      20.530544844469155
  1848   1      26.819352439898253      15.016763223888933      42.819659805855792
  1849   1      11.486645977321704      36.992507861475318      14.330912073484502
  1850   1       46.74735555064764      35.642296482536338      13.227790930535505
  1851   1      16.470638822943439      33.865470580760153      12.166789866796844
  1852   1      27.032179793381289      15.567029128768436      26.649893400628216
  1853   1      2.6901218742634798      2.0508211246575407      3.8850008814597459
  1854   1      37.475277968570154      24.518964042851991      35.698018234981546
  1855   1      10.937844475524265      46.278885762470935      33.501041322111917
  1856   1      25.046853416690141      8.6340957902792219      25.702399733409287
  1857   1      19.910134954828742      35.900564831079294      21.593177124161123
  1858   1      15.074540708701925      19.206589746074172      25.074143240226253
  1859   1      45.306332614200898      24.322211550835974      25.083099113299902
  1860   1      22.046023439387181      20.853276106665909        26.3357651540367
  1861   1      5.5414242620382765      21.547880337026452      17.934309660272323
  1862   1      23.399867991149684      41.003267533186978      14.706356932675266
  1863   1      18.109902827275107      3.8756019839673552      17.391117543752905
  1864   1      36.722870088637606      33.860255559305777      45.152057899732405
  1865   1       19.79747628329552      24.340861081084462      32.613708538654059
  1866   1      13.144178548785796      18.199821677613077      37.616940465660264
  1867   1      28.546284266866543      30.699835095972652      17.744987864278851
  1868   1      35.292634579820316      26.956635968160064      46.940714568131327
  1869   1      32.664239997837534      40.747291302900422      19.543445764502188
  1870   1      22.907794363074782      22.323123592070552      39.062414997802641
  1871   1     0.51322822532534884      1.1837811776456353      7.6614545034183941
  1872   1      24.926860659326891      2.1644092292334527      28.406079064001631
  1873   1      4.5643005836886719       21.73113470348693      22.215538223223355
  1874   1      7.9046579087557252      24.233152579839313      43.129817887615417
  1875   1      8.8664297010670943      7.8348509973325626      7.6699883922317467
  1876   1      32.818840365031214      6.5848388483070535      26.451455457717717
  1877   1      41.721197527096855      14.017939202474132      1.1647123301151217
  1878   1      2.3379558813880896      45.922185134034365      11.797417410364847
  1879   1      35.512252439127671      43.615803609268099      16.570833341383395
  1880   1      9.6905012657661604      15.277252832183578      37.104119939740272
  1881   1      44.786392815242799      41.979922345913124      39.612458080955264
  1882   1      23.957851755806338      5.5487780742647184      11.765659752965538
  1883   1      18.973858910184607      8.6758153549798802      13.929781959653198
  1884   1      3.3721187160123787      9.1661654400355399      17.475202002916049
  1885   1      47.079524503045235      25.195857797130188      34.299686169137964
  1886   1      34.060586203237925      40.490327141539794      26.677099557740334
  1887   1      15.500819003769191        9.76543067373842      47.159865369942906
  1888   1      31.492262182324374      30.222891519561305      37.846802485424163
  1889   1      4.7759868132984007      8.1598446334003825      7.2366913464449762
  1890   1      31.695436370530722      28.155110262310934      44.817300299391505
  1891   1      36.908598644528062      43.358839447907457      23.704487134621534
  1892   1      18.980720571127215      19.104180763932792      45.556989190488345
  1893   1      26.593833526976415       41.56234981435351      34.777890231666092
  1894   1      5.9049042478424933      10.076704142113709      39.034794064424453
  1895   1      2.0180928553003534       46.38558090313731      5.1697582396045343
  1896   1      36.793351038824149      36.633756832428176      27.062246108705615
  1897   1      12.708554833447124      38.301317999205637      21.143938122569438
  1898   1      3.2293976976008496      6.8067866731778972      37.823771645223047
  1899   1      33.125671879348019      35.058729853456647       43.02864363099259
  1900   1      17.401414479994095       35.35560808530181      4.8210152296933488
  1901   1      17.320661114906983       38.16400513231649      2.2178839366944385
  1902   1      15.875044926357734      15.510646443510261      24.561577050724239
  1903   1      3.8097106414711104      6.0276094381183345      19.592738382701295
  1904   1      41.286333344897251      30.464109123646423      26.705295402413977
  1905   1      40.504127424616684      26.810798153544333      35.072111884789038
  1906   1      34.507556344050201      2.1114779835009458       36.55221209816996
  1907   1      9.1834687378314097      34.010519535706173      38.019118179632081
  1908   1      33.800820599419254        5.86092660234576      36.476795662454194
  1909   1      31.113968421703824      20.899077184058488      15.585327156729267
  1910   1       38.93832215439808      13.606438296201482      42.239325975045254
  1911   1      7.2109634659357731      39.357313926086476      11.253014035239811
  1912   1       46.33421913484726       32.47244694491836       10.61890190093543
  1913   1      11.903202696692279      3.3372454094947104      20.046723327253389
  1914   1      39.665627762109963      21.967627567189567      13.788403949942413
  1915   1       2.914930516358635      31.934475770597395      17.965901856273259
  1916   1      9.9346516777835951      45.114797864252182      39.067523925247016
  1917   1      17.491384887647381      47.764642790901704      5.3159177615291959
  1918   1      2.6934118207481372      18.679368030658782       20.90692208339112
  1919   1      44.469999034011686      38.361862777521452       14.62195844599583
  1920   1      2.2020430647182589      2.6872686400429151      34.460331217411962
  1921   1      29.411617121096352      7.8140828780524281      25.533157847974103
  1922   1      7.5691953021471123      44.883866004711038       1.700725186565669
  1923   1      19.410449998190312       31.58836010974904      11.249095115858506
  1924   1      4.1873694414093983      9.6202019785321244      35.407824884630884
  1925   1      8.0385850870596709      3.5916277263626251      42.400379942240043
  1926   1     0.92923725114116162      14.778723001107714      2.6378355450757729
  1927   1      41.532677514894992      24.769220122758107      25.780752914102507
  1928   1      5.9064829586551628      35.220008287605523      35.991337537761339
  1929   1      15.936311632389529      20.676437231478811      37.800793083992197
  1930   1      4.3257957720413618      47.364869803365352      2.2924269588508657
  1931   1      16.082763631355746      35.932563153767461      21.451358691489219
  1932   1      46.003887862175901      13.350709584012964      46.380883691088641
  1933   1       24.60328950321599      44.655672546732163      42.155716522426424
  1934   1       28.53843458001738      0.9420320606765904      28.566897826674303
  1935   1      21.534413658759014      24.903152255682574      36.557321025614343
  1936   1      42.023535486170459      40.436225166916088      24.778281101069737
  1937   1      6.5194274790599991      40.355207936235615      5.1025703692077453
  1938   1      37.357154652339752      14.833056736519136      21.732488872557298
  1939   1      14.114001324865118      44.284868670978184       40.14529322072552
  1940   1      1.2126319003799759      38.169464115323322      44.599291391044076
  1941   1      3.4351260136400352      44.505760985045654       15.36300824636858
  1942   1      9.5438175572818036      40.695042832375194      2.7225310426875122
  1943   1      44.866939227043915      38.111191550404357      25.930449544491907
  1944   1       15.20531150847299      38.704962177114595      23.995143671371103
  1945   1      21.484111625183726      1.5068471385291793      17.698538112672686
  1946   1      41.888938222195918      17.703519187572798      2.3115880117511471
  1947   1      16.396825112390655      5.5716788633395051       7.793401677452434
  1948   1       26.96770690242429      1.5987534696486336      45.237752016452447
  1949   1      17.909697104109135      45.754883516882714      31.253668993102785
  1950   1      21.314003052114764      34.894244024444134      11.354666467690041
  1951   1      23.910987160815452      23.487211490289312      33.495932394667548
  1952   1       20.86120128035185      10.224399465612782      24.875705297315754
  1953   1      11.659638189915801      44.558872368643222      2.1340222323524403
  1954   1      20.345522219328799      42.908626609522209      21.026595534515799
  1955   1      34.676307432123338       24.59983306460957      12.716612882063693
  1956   1      32.584385797341668      5.2444135426082399      43.153675068243118
  1957   1      14.861713355218891      18.656323841194659      41.243909645453826
  1958   1      32.510314627104222      20.642113022697853      22.718980949967406
  1959   1      25.850818611938109      43.788281742406674      31.550428990626731
  1960   1      15.666489912111903      10.477336520899305      14.514528398017649
  1961   1      9.3866429260377604      31.942738278455796      44.989615993599415
  1962   1      17.860371303048883      22.443579781999464       25.50907071794316
  1963   1      7.0999709642548261      36.531083551133847      40.013028802209533
  1964   1       22.89096766821768      42.359572136877759      5.2219704286782429
  1965   1       39.23084307536967      40.950153489637344      10.510973514593452
  1966   1       1.397660364973992      2.4976485724682451      19.979272005696082
  1967   1      12.858883860222427      7.3745197072274919      46.034184690983736
  1968   1      35.119470856702925      31.844459621461034      36.733786815552804
  1969   1        32.0183361473754      10.280782150870962      26.964021647219738
  1970   1      38.147908805462009      18.492405463877212      15.414593314510228
  1971   1      21.521271024799621      44.532506348325853      31.414487755775461
  1972   1      8.1792769792490017      38.794029027394743      14.915658511848953
  1973   1      34.853308543847007      7.1307407932466207      29.650332728744509
  1974   1      11.889245083078704      10.987807842295283      46.999046607270238
  1975   1      14.698176398798669      11.040621419591034      10.851883921408502
  1976   1      46.053433853684751      5.1881631631929741      11.326388365226425
  1977   1      27.565915159042913      29.624986772830127      21.944480986992076
  1978   1      8.9499213523269106      10.231273870525945      16.624190245845984
  1979   1      2.2434815733241344      18.802728714625534      3.3507579694237437
  1980   1      29.764906317461964      34.439027000313523      41.341243319953435
  1981   1      35.304505064588554      20.817439080388933      14.262424871088051
  1982   1      31.912262718253963      27.199009940392742      12.192929775243712
  1983   1      12.108413781515386      28.997953378927026      45.472965352320834
  1984   1      36.040375428306405      28.366173207767858        11.0316195033095
  1985   1        31.0564416641223       24.59062250963904      43.613249347073776
  1986   1       43.20318254437889      21.727524901090618       3.024510436099118
  1987   1      33.916912681756884      38.397861691930473      40.035936010275933
  1988   1      42.372303215051694      19.501726957883822      34.060562195666144
  1989   1      9.9683915973445583      18.023150162925873      27.463694324227074
  1990   1      23.302968895491283      13.598350079827611      1.9045673999406429
  1991   1       19.74841670200119      2.8352511463987682      7.3884332527173502
  1992   1      31.332470606830505     0.77874055742183512      45.068510131017263
  1993   1      39.370523720031386      21.061674198106004      25.099388157678362
  1994   1      33.683451930303406      17.809587192864882      15.993002594779473
  1995   1      45.347113946878885      14.489950872745315      2.7626524975246416
  1996   1      3.8529329507213763      5.1819314016961879      41.573685506146511
  1997   1      21.771196095188117      17.668411823277676      2.8213485883463472
  1998   1      45.866345239412084       38.10489861616081      21.755612239233965
  1999   1      3.6634373181658031      27.698949043003736      34.102815564125088
  2000   1      34.607656547870064      14.501640670520702      18.118268913850102
  2001   1       5.466561267231187      31.695245217238508       34.83118765664112
  2002   1      29.933141945896981      36.214195657020028      24.681838900994663
  2003   1      11.594639141343903      9.8678396558797967      26.677019419680825
  2004   1       28.22779363949768      27.357734695143165      12.795404404297717
  2005   1      40.551865619951627      28.453821207320093       10.42256502648149
  2006   1      17.102122689223044      45.389630408176515      21.618297306800997
  2007   1      15.405519948612465       41.65561928215886      1.9642272965439695
  2008   1      20.910343082476498      3.8373680720631409      27.127088901123614
  2009   1      45.800713673969547      15.418490841263331        39.4103858771213
  2010   1      39.169733522742355      14.408079172035681      17.597163546164385
  2011   1       32.37208542941697      10.003634137852666      36.139136964979066
  2012   1      28.959420682666924      33.869684633590623      20.353876893878933
  2013   1      34.824414004484737      27.497385481832126      35.857400558482603
  2014   1      35.596323458885315      4.9048088651934574      32.877793969783866
  2015   1      43.997857446177953      35.310880416537898      9.6135709718283167
  2016   1      7.2641187573460808      25.006836916038878      16.938608530876177
  2017   1      9.4266300361375546      43.367802365829242      35.515989399240404
  2018   1      43.438040402157768      21.995163696235416      13.212487778913033
  2019   1      4.9759958839901861      24.908597509428674      24.674736953168335
  2020   1      45.859510812715371      7.3619815396899355      14.456968725116338
  2021   1      36.248216647959225      15.547563194455906       44.45717271734781
  2022   1      45.765280180862263      21.171852083612372      33.586763744789991
  2023   1      34.704955129054753      26.685081617671479      26.460237361719987
  2024   1      13.416293051122551      35.770829657095383       18.48702846863738
  2025   1      42.821017539866517       15.50958207328792      16.979242287030111
  2026   1       45.92495339985652      18.782740001561844      3.5078597948205408
  2027   1       38.73998510409421       25.28314844547937      11.513445327626227
  2028   1      26.897662931053219      3.2716676032536043      10.847965002027202
  2029   1      42.172332871434733      41.094260301788395      44.273043857719458
  2030   1      5.6366238699242501      28.561481007881632      18.282691008854741
  2031   1      38.153105597454896      40.763875150451497      43.363401231333484
  2032   1      11.961911978367244      41.185965975768902      24.586845443656301
  2033   1      36.802839565194105      30.862432110020169      27.259048865227946
  2034   1      3.1679543782882797      21.988098864847554      15.081884429985216
  2035   1      29.866966290888879      44.286011505756953      36.338413396324327
  2036   1      47.994183615082235      29.250847345379455      2.9232540787393488
  2037   1      32.684045917935244      17.815880127108432      20.167839900037414
  2038   1      41.145241894440758      10.530326109487737      42.819716678032393
  2039   1      47.497180687516263      1.3672386924084863      11.910392668572467
  2040   1      26.415913123640262      24.187061933302438      13.886284705442462
  2041   1      29.840642177061781      20.140913743620153      19.015671456615244
  2042   1      26.043322026979617      44.803287787685633      8.8866032470182965
  2043   1      16.356104226369432       33.49371918608427      17.569333717699042
  2044   1      27.341555781656027      20.871541055012642      16.161243327758651
  2045   1       26.44839983072719      26.522484603623962      16.946176360770899
  2046   1      30.189568222946164      23.740053361380312      13.188630904639858
  2047   1      26.520570012753119      19.616905277785104      36.871449272205858
  2048   1      35.079798135703804       17.55262303150425      23.126656388017611
  2049   1      3.8266918441880398      39.055126159448051      39.938705614279883
  2050   1      5.8176484846414178       18.46877427742595      1.3002433624503456
  2051   1      10.265309237756659      37.451954849751246      4.9327754333992804
  2052   1      5.6534389361811552      5.3874456100532502      4.6929063665630881
  2053   1      38.056039564961381      12.508630991477236      1.6252365815070817
  2054   1      2.2332018093485138      20.795329451858017      35.891472232524009
  2055   1      8.4187610824165002      5.2507019136762869      20.394327300254815
  2056   1      10.366634466187838      23.600545121185199      1.2600996851224033
  2057   1      17.631806772530737      43.008986186140419       40.89409460861598
  2058   1      11.905239593309041      31.065734636177403        38.5024675383535
  2059   1       15.56529189472619      23.733706332858219      28.572006754118675
  2060   1      5.6741676878513667      46.648546803446159      39.318344448214006
  2061   1      1.5185843109582478       32.19143993195803      10.832248063035124
  2062   1      21.892290762462959      41.475237246946449      40.643274085648976
  2063   1       20.80510272918276      36.250548628134922      1.8702799636930176
  2064   1      2.6112964764017761      43.483341166351167      7.9153924365746686
  2065   1      9.6957189128354404      5.2509967613157071      28.778799981761011
  2066   1      28.450661995278992      30.415021286795703      40.628320895605469
  2067   1       29.91633099720357      31.565279635592383       44.66328635953785
  2068   1      35.799470176623892      21.184162023147458       34.69915671789969
  2069   1      35.214037723315954      38.205558697717478      9.2827347503046767
  2070   1      33.542247416985603      32.037291305863562      46.261226526947368
  2071   1       17.62591673535934      21.103154476300656      42.211290328468564
  2072   1      40.746796330554218       27.15541233342924       2.501392297761619
  2073   1      22.320144474463486      38.719803437186364      22.048401390637647
  2074   1      6.4389889068311428      23.082894231042633      39.094852423683029
  2075   1      11.113998790900167      27.726602797703578      41.495175159070151
  2076   1      27.812259329040653       23.93009777194181      21.019938498680602
  2077   1      30.608790749996949      23.666343566480162      24.603513260829025
  2078   1      30.355766888067315      33.612720472229995      27.487530687117076
  2079   1      21.766551165474176      22.341170799858091      45.991916668205249
  2080   1      23.957457087944704      38.694264278942789      5.5349127820330661
  2081   1      4.9582986984088704      10.962984227448125      10.482810459598666
  2082   1      28.331640629527534      12.997920873808521      45.701875551644676
  2083   1      41.926760588305761      44.663077873229582       41.48552567223868
  2084   1      4.7095625588413297       10.53724373921318      28.464671735169492
  2085   1      7.0344826440274755      26.326051158914375      3.2495016120639741
  2086   1      10.518165144535732      45.006890446553392       24.00284114031026
  2087   1      29.713156808997219      33.633060892842749      37.692788545570515
  2088   1      22.913172577472963       15.11917220603031      22.336813855593697
  2089   1      1.0094577121736257      40.237245372573689      37.628793577076742
  2090   1      23.768129036677809       38.20672775806289      34.508695873091909
  2091   1      16.580795495338013      4.5815926779823251       26.99114766627234
  2092   1      38.735147966191718      15.674219553451854       35.26882816107792
  2093   1      12.646562619471567       2.890594852205405      4.3702466651597138
  2094   1      27.893950717068893      17.036876614173082      39.376543244394156
  2095   1      35.598111079983589      21.034138069060155      25.675304328707746
  2096   1      42.177031839371509      34.059031924574953     0.71273562936269763
  2097   1      3.2785503715606992      1.0470374812686671      23.362875437110112
  2098   1      3.4650817072391131      42.260567012570846      11.422808971048282
  2099   1      3.7961520107535023      18.205704880626921       16.62769641900957
  2100   1      12.923356751179419      21.342795366347296      27.446326075159504
  2101   1      4.5320223744713521      25.754439008005853      13.396891051231016
  2102   1      5.4318660607806288      1.1249284535440849      40.969516142994408
  2103   1      2.1932821471643953      34.219287825552698      34.756864468711477
  2104   1      27.751448161890551      2.0488934494732707      14.355381536500815
  2105   1       46.74723828041423      2.1559960016265309      2.1819083652916653
  2106   1        23.0158462154665      46.938323100031013      28.864117909101964
  2107   1      27.522930979405555      20.094145715552493      30.147756914520638
  2108   1       34.11590623372728      43.872767770628727      9.4371795481452576
  2109   1      45.800410627432939      5.0843252527771678      5.5908962017503452
  2110   1      7.7014837205493745      26.300933837089687      36.159320073648075
  2111   1      17.927016223478855       20.40541918392778      22.022685609002178
  2112   1     0.73369215838976154      6.6976331331026255      34.895004358710892
  2113   1      47.889957683267852      40.295421897259502      44.140250321937295
  2114   1      12.610546246506072      33.952243272062532      11.159066702388854
  2115   1      32.724938144054207      46.786347457143847      36.717811454121282
  2116   1      35.074130341453383       3.987767104512403      39.820947119245261
  2117   1      17.043413407548087      7.5409098419023248      17.078175190398088
  2118   1      12.711610673961591      38.940912656758542        1.41629501914092
  2119   1        25.4857329301846      47.112291041929822      18.058047397660495
  2120   1      19.524984594764323      31.960111504424923      5.8465512649563127
  2121   1      2.0339202051230831      34.397077904221881      26.493723164971723
  2122   1      18.703106448376523     0.97336224718121267      20.136751740723039
  2123   1      38.091233398532026      37.169062149622818      46.221082849619435
  2124   1      30.033009770684252      3.3478488123817489      26.016527980000809
  2125   1      4.3112767217590271      31.677511609236767      25.099555649511405
  2126   1      9.5026341126720766      34.822352156083696      42.488036900852521
  2127   1      21.143015912353647      23.966026071339805      42.242002807281793
  2128   1      18.925200704720957       26.60276986200682      29.672809905256443
  2129   1      23.471951515836999        2.94953180786016      8.1935476611587035
  2130   1      9.4808102596541524        5.35544728736508      4.8347247992349889
  2131   1      43.296861730812495      41.194388607354419      21.347936801183764
  2132   1      30.972789750358555      40.098302095177488      23.720776178999994
  2133   1      33.597352683873794      18.525984633436039      44.616555040848866
  2134   1      15.924000829518373      40.992638784573465      33.815169568703439
  2135   1      41.900515525412104      41.451352768715054      14.214283007945621
  2136   1      34.782760444894592       15.03267359979143        1.55091339357744
  2137   1      12.467821682422876      16.739890473255628      23.643279440980621
  2138   1      40.942067706234404      12.598107366738112      35.849218864065065
  2139   1       20.23427953542857       32.61077992844352      18.696710925652418
  2140   1      22.222992403922458      18.782188075583711      22.073285103611219
  2141   1      38.598806432748937      44.482373356598373       19.64889434989696
  2142   1      15.984738582974099      31.266224314355593      8.5946777749900072
  2143   1      22.536774625411446      25.380392693449963      29.833628667929119
  2144   1      12.960809837355043      31.608783841256212      42.939101386626014
  2145   1      9.2314558095887378      21.043999669668395      3.9251426105915379
  2146   1      46.866183929709919      38.144804474070597      35.665090004436706
  2147   1      34.972482925802893      38.940910897009275      44.472569858548454
  2148   1      44.989567003449153       39.91214108866275      46.582955894922605
  2149   1      27.844746036127582       26.26552044226333      24.079830154009034
  2150   1      47.127511574802561      12.229337931092413     0.20571060009742081
  2151   1      27.380609919872711      46.118310187804219      28.694876023666779
  2152   1      38.495961256385357      16.033394061844248      2.7853864626273026
  2153   1      23.250113538130911      8.0792664163749688      14.422569406897598
  2154   1      10.661691318406028      27.947619260814111      2.1364859421926159
  2155   1      33.883669766703292      10.744028928314405         30.615194645031
  2156   1      31.633431841169298      30.558476270959538       10.05758060822675
  2157   1      17.453978036416991      11.453643495358158      23.957407687572143
  2158   1       44.53821886025132      12.200451235216288      42.345918227156254
  2159   1       30.07432061724225      17.014970745901032      16.546389878723932
  2160   1      36.289041516342678      19.109506248557992       2.204995759640155
  2161   1      42.398392597696194      18.111057258077956      14.173550500907698
  2162   1      5.2553772707003228       29.73622053219583      3.0954876722103171
  2163   1      43.500302900424003       10.60776982919268      1.3187262699687792
  2164   1      17.179933763607686      34.516139004778751      25.016949527492955
  2165   1      30.749580848157347      37.522740426705155      9.8611440305739215
  2166   1      44.217363745266923      15.252617911927285      24.112896080268246
  2167   1      14.090132063182718      14.434938302933563      13.655642108990676
  2168   1      19.622350796291158      39.915663453761773      33.516268317855648
  2169   1      32.542867246589971      37.015105038227432      28.303288922308148
  2170   1      26.129172266347759      18.679779093442335      42.556131053873301
  2171   1      32.618744882968628      20.460621519391623     0.86551265879296801
  2172   1      21.834281641036107      8.9442746551416157      10.740123717702581
  2173   1      6.8243335980043298      47.132535353266093      32.618817466098427
  2174   1      27.209148757916573      13.495941097686242      22.387413350202735
  2175   1      22.350100168062568      36.474609464711548      18.108202115317344
  2176   1      46.404464103789579      18.655002477924732      24.928654315459323
  2177   1      31.020486050298473      26.843806372421902      27.062711990774005
  2178   1      8.5293362730839366      8.1187443131466814      45.898243456132469
  2179   1      13.893179527258742      47.427842359712407      29.974678830224768
  2180   1      18.482690051425568      11.680702372082351       11.14509214243766
  2181   1      10.028163471215448      22.407660040255706      17.462291637696165
  2182   1      28.897143514809564      18.200964512391835      33.810060641259064
  2183   1       38.18311606254386      43.583917546502093      40.126971292722303
  2184   1      10.952294640102009      13.943874506075407      11.021678857216973
  2185   1        9.13171922936667        33.2045534282354      34.370663405249161
  2186   1      36.944018236539378      11.663207198901169      19.123599842957219
  2187   1      7.0329700753246458         28.304516846521      25.416344802092887
  2188   1      11.870868806751666      20.072981175446433      34.272789008869196
  2189   1      7.9830652206534136      11.090216824436659      26.516200657008145
  2190   1      6.6084827873497929      15.154086633777268      26.362891173089306
  2191   1      16.875401437072817      5.7015608643978091      47.313174853861753
  2192   1      25.847357634345961      4.9381524877153105       25.18983354390727
  2193   1      3.6995632186124832      38.296120474319267      35.410946834774194
  2194   1      26.757352449182228      12.382164845380206      3.1354768349378639
  2195   1      8.4568072600582322      17.282755372464131       32.98763664417514
  2196   1       33.07746024163292      30.239725709514232      27.804319839698557
  2197   1      40.165383475009008      22.577839144597565      33.480171492678998
  2198   1      42.513640203400101      24.836139873557237      10.815791526823622
  2199   1      4.4861545066759492      3.4168886954857056      31.092649309737283
  2200   1      3.5485733584989365      44.656989885764219       20.37701082466252
  2201   1      5.9973689460626547      6.3279720921274034      29.077701232608803
  2202   1       47.55396254356468      1.2652482478877278      34.453544130185833
  2203   1      8.2383771645314354      41.071685314307501      23.781731035214946
  2204   1      44.236334698707907       28.29509645256967      9.8200903974274709
  2205   1      41.969158683228386      43.162041559038769      37.302546043752116
  2206   1      24.816522944901788      3.7349590899217633      47.609934851385702
  2207   1       18.64731037314256      23.856872531264528      39.313235520769638
  2208   1      36.045042459752864      17.615344451706278      37.486674903380468
  2209   1      33.456050694590317      24.188578891515085      34.788375608595572
  2210   1      13.558971793272308      9.4543663460838907      17.425779163399504
  2211   1      34.755945345277851      8.4821201473920489      33.556093278428612
  2212   1      20.486975357763306      4.4791836958409474      47.473993616534429
  2213   1        39.5587320474759      35.668412340472258        35.5338728690013
  2214   1      37.202460227348546      44.739337517959008      12.515240556658814
  2215   1      16.634970744897871      2.4629539358212322      4.8425993311918951
  2216   1      39.995152638149335      44.225409195237745      26.782548143135095
  2217   1      2.9140596993752736      11.493361476365482      32.063673427839824
  2218   1      46.029942615669526      14.827640347443834      19.977570753875337
  2219   1      30.853267475915949      26.658403766889407      36.642751533106441
  2220   1      26.624322336039533      5.7105115709367933       14.72998997581738
  2221   1      8.6279782556595492      22.414450084356737      21.012370668785884
  2222   1       33.93918963310955      3.2454398302403717      46.499373930262898
  2223   1      7.7393038752160752      11.496469118796085      8.0445968315483132
  2224   1       12.96922157464752      5.8039698465391876      26.830328903599664
  2225   1      2.8092644378029537      15.820224777696707      45.378998807406298
  2226   1     0.60226095820555681      47.250589141903959      1.4873125504095119
  2227   1      46.426262238285943      34.620041403703588      34.504940123316487
  2228   1      33.138782555377674      44.056022137089201      13.718408111096284
  2229   1      18.705893226928158      15.919316480544556      22.042572624797991
  2230   1      19.785869718496972      10.735478484788468       1.873854921127416
  2231   1      41.932381523627718      15.976963887516813      32.900412314545925
  2232   1      46.931728528324015      15.597727182697632      15.745429536033868
  2233   1     0.97466196237922076      30.789621558224969      33.609702749714742
  2234   1       19.19003360123936       42.29570023465017      2.2574355175731267
  2235   1      4.9652524288017599      15.857943815096771      3.8341073281451661
  2236   1       37.46899984292412      24.085904741888307      26.983920468539978
  2237   1     0.96705961725100309      41.738281686764502      41.811773205563298
  2238   1      7.2452146256435856      37.316310867443676      8.1230672439762479
  2239   1      40.535605950975039      7.8451051987812956      46.113035849964568
  2240   1      35.931474966178456      43.542093814367945      27.985715697572566
  2241   1      19.295754396241684      38.379968541046779      24.428440717157876
  2242   1      3.0204548173821313      35.130531912344651      1.7673552552033553
  2243   1      44.623138289220563       30.62374522946881      33.776568030800462
  2244   1      2.8428377528142241      23.480550362564461      32.598153060591841
  2245   1      27.606268783597635      33.281304406231556      23.873310728409884
  2246   1      46.563948106264945      22.347227754233742      4.7119107471382708
  2247   1      45.888763944324253      34.026865258562836      28.113019776146068
  2248   1      9.1261046322302981      35.865699776244099       11.50667067539028
  2249   1      28.334670808644674       27.53540740916781      43.129899988352363
  2250   1      34.116158597644827       1.174351799158176       42.23689387983741
  2251   1      17.209889457206764      32.270945032303935      21.076750252172648
  2252   1      18.316812541497175      18.884597057725092      1.5904391533491267
  2253   1      40.293350891282117      39.827239539334229      36.303684526670253
  2254   1      26.217251148705756      29.820164534106084      25.423912631987605
  2255   1      31.805508793892365      9.7305162459914545      43.133788052447308
  2256   1        45.5975394857632      17.486272098513705      32.439888063153965
  2257   1      22.623180773594129      27.696483137375086      32.882902897228242
  2258   1      33.605779435124887      7.9981315975721134      40.255620260544191
  2259   1      14.732427558506487      8.9996183609482419      7.7219371301449389
  2260   1      33.134943545222157      43.805848019829597      24.402140935424143
  2261   1      41.940007228630961      17.972184206912399      25.507063595728564
  2262   1      27.899328931467075      9.8329252281328312      22.650942102185219
  2263   1      42.746064855612047         6.9896843291124      11.911134803590882
  2264   1      7.2107961464630304       46.80841161247281      24.587587578674711
  2265   1      46.007523910757349      18.905673705041814      13.620163216963238
  2266   1      8.5123294268681811      13.369829872443148      14.506653866060745
  2267   1      2.1563622401857536      47.924429288283918      38.569543060323554
  2268   1      5.6042471352101861      19.422431567768658      5.0381582804628957
  2269   1      18.595739511438659      47.188201469665756      44.739643083533828
  2270   1      2.4923055741883058      34.535950955387435      15.160210070150852
  2271   1       5.869208852145734      44.511341808219804      35.539519850124009
  2272   1      3.8251417618830335       22.83260094105011      4.8841443406092386
  2273   1       8.432300205500816      38.897866937810548      20.651150675325034
  2274   1      26.715351045942747      0.4685280092058528      7.6018458888735072
  2275   1      29.375653347669129      33.701671230467795      9.0848977742478816
  2276   1      2.9177711981350223      27.432813748476267      26.690159742624552
  2277   1      32.370633982442499      40.530592314229196      8.1305663068825016
  2278   1      5.6061218206973615      14.676846196009883      33.086583530774519
  2279   1      32.309524429815184      13.988517996627532      15.216756338453433
  2280   1      2.7258310729757804      43.855092561027064      2.5128485856724705
  2281   1      39.464521515550139      37.824210491918222      8.0416919367021471
  2282   1      28.289125249485394      8.3121031019301412      2.2186956465321597
  2283   1      26.363185053067355      44.339892018582688       15.51426241777861
  2284   1       35.96080844693936      15.090020897879768      14.598835079319151
  2285   1       35.74863071835891      31.430179369004271      8.7837656676950875
  2286   1      22.803018861983468      46.388057195151518      45.033884314329534
  2287   1      14.799713364502868      16.021725462685932       1.559726674535904
  2288   1      33.026937364793305      34.803174131720041      8.4669765151136023
  2289   1       46.21507824175508      32.661016718660903      2.7692401388856913
  2290   1      13.089214332010776      12.273656407584955      24.126649573007324
  2291   1      29.750174835789188      37.529033360948702      14.035981335831863
  2292   1      44.693207936212893      40.937424445993784      28.481590594421899
  2293   1      39.521468907349316       44.07268174076853      44.432426181220507
  2294   1       41.32668696945197      34.120426757047852      28.634125143831788
  2295   1      14.920808031777705      39.828550886354705      39.381652171838532
  2296   1      24.277320114032435      38.230868509839837      12.162571952793378
  2297   1      3.8691844452338691      14.114555021411771      29.142971043814239
  2298   1      40.458702713378628       10.79989959642708      4.1002446801500687
  2299   1      8.6604649627464774       24.74987275467825      24.072262324114316
  2300   1      29.609719201012936      23.540288391526119     0.27676993694555518
  2301   1      25.557816454871919      9.0585553166030071      11.545238126143936
  2302   1      32.195305111910685      8.2096941197887627       22.70154159679425
  2303   1      40.920795296165096      40.909888316947942      29.057506765451286
  2304   1      7.3031451524611777      34.463302293883487      46.983526616176867
  2305   1      20.264235229027651      30.365585955968704      14.756511650332119
  2306   1      11.566675198689067      11.464470796107921      8.1864152642202157
  2307   1      5.7821282356471251      11.985404046142602      17.930426269392576
  2308   1      26.251173035068089      30.055971424595487      45.123810610929809
  2309   1      40.566079728142746      14.151115010675049      24.730817339402524
  2310   1      43.692892508593346      4.0613550779617631      8.5021469671321963
  2311   1      24.435965107097488      42.583632973454392      21.459892580302576
  2312   1      37.846830595188464       10.93577771400253      45.619923035554223
  2313   1      10.983525300056765      1.0417251142299313      29.391829479200315
  2314   1      26.071640409544482      40.645308053672451      41.721043381127487
  2315   1      6.9852878802614118      28.366303246605678      14.803259363859215
  2316   1      41.395315932705898      38.436469417117223      47.686211828537054
  2317   1      24.627490129884816      45.668296026452275      5.2041575578232733
  2318   1      12.930392811153212      33.171583390690827      14.914916376830543
  2319   1      35.899196756961139      47.565398118886861      19.167068525580227
  2320   1      4.7275093867612465      31.509498206113943      13.830576529880346
  2321   1      45.693276932034365      28.271806060454743      27.679334297496734
  2322   1      8.1572747082749189      19.355893367427555      16.153675497863926
  2323   1      36.731756679963908      41.680780801029826      7.6565453857368624
  2324   1       4.029866032394386      36.987344902197677      46.909203428247224
  2325   1      16.173792341258956      30.690579592036521      14.323214604545345
  2326   1      25.112649653252852      27.013122534230298       20.53811267436388
  2327   1       31.34656650602086      38.468899226738102      42.874629691138921
  2328   1      8.4995144475036088      2.4423048666616127      22.997458593253725
  2329   1      44.335044672044958      14.268232492466655      35.375420413188913
  2330   1      33.353363726774845      24.619448718253601      1.6353243164619264
  2331   1      17.845040214216539      2.0882727293300212      46.348312937575258
  2332   1      31.287699712534845      18.072844288469064      13.034186106799275
  2333   1      34.567302923315353      10.845323037119275      16.189439172432301
  2334   1      38.058020974767643      30.246084848650476      2.0082794833512718
  2335   1      21.871592148909784      32.585240770199945      2.1832223170478402
  2336   1      4.2402776645238571      28.818445169242263      11.149037215616605
  2337   1      22.895853458103247      40.468636538985251      31.567797239694301
  2338   1      3.1641153681327694      21.737924747587954      25.765617254313074
  2339   1      10.910824602693822      29.794384054953952      34.524677345102816
  2340   1      18.533583681456044      37.122332572069261      37.190686446241749
  2341   1      20.347726880287475      32.762008829162092      23.710713503946359
  2342   1       44.78484273293779      25.757397127515191      4.5578968072846129
  2343   1       45.20118232748127       43.38609441248073      43.647137507526949
  2344   1      6.3229977201968257      20.203280353414744      41.596431516429924
  2345   1      9.4025188141629172      14.990795130522514      42.864503477432265
  2346   1      9.9680216994449431      20.193838769105827      30.972688567046653
  2347   1      1.3634092052661744      4.5386516311110388      23.109218796959645
  2348   1      1.2970656153477456      18.936332192019403      13.773268290152981
  2349   1      40.332431762768692      9.9128864560316643      39.142538035997227
  2350   1      30.084071692302629      35.250859620691045      45.810162041173882
  2351   1      12.825993552610267      22.694174720492725      31.352086624843608
  2352   1      39.474010041920096      32.052885769510212       8.238494693224478
  2353   1      39.998991648304838      44.475583312497349      16.098815318807237
  2354   1      6.5036199161219814      8.7423160635186523      20.140670660104345
  2355   1      22.541625190849896      39.559272517709431      1.8524670928380431
  2356   1      32.805418669182799      21.548066391781415      11.407996742231463
  2357   1      2.2792301382725326      7.7562004554914203      4.3854857976433106
  2358   1      23.692049580922269      10.633069502647089      22.356700871389506
  2359   1      34.946824061079582      46.976520781670317        23.3112606342794
  2360   1      38.659102403560922      18.501006495831007      32.826089126616282
  2361   1      11.530574328537753      24.705164250110499      44.727758055024935
  2362   1      44.928735155664711      5.8718440351482721      21.802743362219832
  2363   1      27.098995042427077      44.764826086807446      45.084483808938572
  2364   1      6.6948889355324734      17.470177077702395      29.412165402388421
  2365   1      4.8867855749209008      43.808113031248247      24.186699459950027
  2366   1      31.267893792437143       41.00425546426105      12.409791971264051
  2367   1       35.46423648617013      47.825879069509341      33.937731583396349
  2368   1      22.440134390411103      6.1673965174606842      24.271535934163662
  2369   1      24.253759328776656      20.479516008650336      13.204919949018315
  2370   1      26.752707519468288      17.054923821960617      46.306044914796772
  2371   1      41.395337853705229      44.218619151136721      23.232469112045376
  2372   1      19.228138113079844       28.78522051570129      8.0029760027048162
  2373   1      32.509087333399663      14.807898737655012      30.461885161112161
  2374   1      7.5500590408077652      29.174681201810824      32.837277034063668
  2375   1      28.863773493148216      43.121923607538193      41.904895999459427
  2376   1      13.301758454548548      35.399078262419501      23.889572319539575
  2377   1      7.2316320502591589      22.671414245717365      13.878716875547745
  2378   1      31.574772233901243      46.302358907323914      43.417338436236861
  2379   1      4.0794622658261712       39.78116330260336      8.5875453780515194
  2380   1        41.7729470355616        14.8239053099449      4.8131671044980395
  2381   1      8.9982711562934199      20.291738530868159     0.19107473523537599
  2382   1      13.670717000361709      24.867952388679612      2.7252286640400238
  2383   1      44.122988351048235      4.0532576501154196      14.474781595971312
  2384   1      33.394178495667447      20.593765890686409      37.646057226881524
  2385   1      26.704482870943146      32.511217570977763       28.10545194625135
  2386   1      5.8874011295371727      5.7278333466357552      44.772562777173299
  2387   1     0.92873332268412967      4.5604281378762668      31.116179760620895
  2388   1      6.1238555921616378      31.252534044753311      20.964230323118485
  2389   1      1.0019615732691647      18.030378822935841      25.084252497888933
  2390   1       8.381634085661803      28.109339085245047      21.936913157097354
  2391   1      18.720835683932783      8.5719774445640784      8.1942897961771148
  2392   1       2.606090249596603      17.888006034947075      38.408500993438963
  2393   1      15.763295273129646      3.2504727181923263       21.05444649166138
  2394   1      3.8886517795886975      34.278986794026807      22.293863863388992
  2395   1      42.999088081863867      7.0935222395282054      17.646626967066958
  2396   1      23.843317159232328       5.177026679588832      17.168203603867731
  2397   1      25.677375957613414      17.566002841136303      23.304194538608431
  2398   1       28.48609548838628       24.66166004444667      46.451943027936778
  2399   1       19.10015767885923      38.998621693080722      40.459421467317043
  2400   1      34.120086869963231      36.330080434680099      47.006433824243274
  2401   1       28.44429597166139      20.397877904980785        11.8820176633771
  2402   1      28.801215984977663      6.5775515179486987      10.953536353858738
  2403   1      25.878284594820002      32.963294841506425      42.606781850014855
  2404   1      22.100987656162197      26.779441376694031      39.826056046689629
  2405   1      27.149938061466148       30.95679925733328      10.611334071040712
  2406   1      1.0671023563744177      1.9449413657708834      41.138758028429592
  2407   1      28.653836183485339      28.347240029545333      47.598818709572804
  2408   1      20.691219603619302      22.852249819033769       22.99006629201692
  2409   1      32.982260633746954      23.226125038659049      27.455938491116139
  2410   1      36.559672598643679      39.759699830147312      29.531527686596924
  2411   1      35.471199709230376      12.889772309784739      47.870340688165399
  2412   1      38.330875915569813      17.177567759948552      26.060450879673024
  2413   1      12.544234299717466      34.630222388849297      39.706518490671229
  2414   1      22.183624118403888       11.74457427430994      14.109627053542777
  2415   1      47.628577045042491      21.913525592565865      11.889585493271817
  2416   1      11.810489951998445      41.846288375368623       32.93294571268995
  2417   1      39.316560821736928      20.251792742283524      4.2900489661605405
  2418   1       1.011212592068544      11.614219070024875       28.76357298601728
  2419   1      24.725705335419384      23.063528024611525      17.941877490167045
  2420   1      17.824270015793822       29.79154132233645      18.241486659175891
  2421   1      6.4658244607959361      18.706904159704628      20.331005912361739
  2422   1      25.505066412141296      38.769018932660998      38.452308360052193
  2423   1      46.324730608477296      38.243771667326371      10.422099144413098
  2424   1      34.502850551560748      47.822362280247489      12.033414732342084
  2425   1       8.169873227062455      46.757700343521435      42.247111734726161
  2426   1      14.562930928073756      23.256465895090834      35.295699111803891
  2427   1      6.2358147186247912      25.150675488293004      32.124354609715695
  2428   1      32.822301342623362      45.434968102998411      32.812050904437179
  2429   1      18.075370686004891      6.9874094296874834      24.440777819598846
  2430   1      26.751060244655044       42.27279944557538      6.2296935930862318
  2431   1      42.549920279619599      31.151708507664011      3.2297643902776514
  2432   1      28.355751851502177      41.374928109115245      38.353361473452807
  2433   1       28.53679574049659       36.47115981838067       17.54818510775652
  2434   1      13.639725158359415      6.6459692990692218      20.028910456398417
  2435   1      14.794419772482042       44.41034150794848      24.495628587554666
  2436   1       5.665642248222662      41.577982090015951      1.5951538347341327
  2437   1      26.169568953642521      29.881950934190762      14.810827193753939
  2438   1       44.49471789103923       11.87912041041613      5.2965164632194623
  2439   1      32.922497691141665      37.126511110707014      36.058145817025249
  2440   1      4.1566176941148862        41.2626730024217      17.573252637080341
  2441   1      47.262691444812475      37.847934454800182      28.889266032472108
  2442   1      17.525636047355192       45.72363973225891       2.185970970265632
  2443   1       31.50672636674723      14.330658299887633      37.185577518797373
  2444   1      19.942339742970571     0.66143276990180633      4.2578528928274366
  2445   1      38.631293139835861      46.817796026919893      22.708786005225392
  2446   1       37.29554296236153      47.308433957526233      26.300722318818366
  2447   1      12.814386987811723      9.0887921241967256     0.61223300731697283
  2448   1      36.577831309230604      21.575602520827267      10.832080571202081
  2449   1      9.5562004746851859      35.857602348397762      17.479305304229392
  2450   1      43.073652828611294       38.61882693888208      7.4883046527576864
  2451   1      38.905513477387444      31.422583633997707      33.909361566582625
  2452   1      27.816098339196163      24.180271889201414       10.33620567435274
  2453   1      22.191455174997518         32.121845001097      8.8108814878081532
  2454   1      45.758459684098625      2.2213659850400256       38.05254582285616
  2455   1      14.944381653485074      27.280389642352944      47.352657303166126
  2456   1      29.867336188788496      42.115322899576995      32.829419153504745
  2457   1      7.6927518675451969      43.522001136420208      46.874131531523247
  2458   1      40.504169320011712      41.708316930075682      7.0806292147074821
  2459   1      10.678178272698096      22.094333787781316      47.261622020719756
  2460   1       37.23494693443547      47.074760188280521      15.575132211987251
  2461   1      47.686783495061498      42.363203154509876       37.16975250796996
  2462   1      17.413616367434635      25.862375071545081      35.196752225204513
  2463   1      38.682501800504966      11.717026135164009       14.91562423190064
  2464   1      18.699182504128114      13.658030778491515      14.457231026544196
  2465   1      37.065725747568067       9.129774470698532      4.5740431310262242
  2466   1      30.663532311607518      12.279755863238826       23.61832278519995
  2467   1      6.9302567122130885      37.370625710794428      44.466497855261906
  2468   1      40.078848005905357      11.460061973803377      22.049278025138779
  2469   1      34.858806007525388      12.205886657412272      3.9936524280390766
  2470   1      10.361947279301663      37.676188733430614      24.807267070477909
  2471   1       33.55047785567919      47.233484943030945      16.177606841041257
  2472   1      25.813834268122179      23.366353896629917      36.796032836490085
  2473   1      12.180450404051186      33.960340699908869       5.186432073549744
  2474   1      13.515492627078046      2.8324973352492093      46.212371702723985
  2475   1      35.509917310702633      2.5887184212683327      29.828519740484751
  2476   1      26.823242837376242      17.390026017456734      13.612595387068524
  2477   1      10.439858771516972       25.58512284619745      19.921490367641148
  2478   1      35.550322378780521      43.233700025825812      45.217777155844345
  2479   1      9.8049548402539823      2.0656623847293072      1.9382586007262879
  2480   1      20.910157183512485      35.706391806675995      34.129297815294954
  2481   1      40.071519435396844      15.178166007289482      13.365022328322915
  2482   1      37.949931409248535      42.831656407701857      36.392903417366142
  2483   1      16.818292497541407      15.108641869691088      11.073627595130164
  2484   1      9.0435125661165738      25.842087007558085      12.787836574403002
  2485   1      43.152983118219154      37.144084012017778      34.430616935386851
  2486   1      44.422227673617002      9.3208373575883865      44.847497319903148
  2487   1      16.079560310084176      29.836935093869748      44.687614377696995
  2488   1      43.476400055890807      2.0840266715525999      5.1900080830256599
  2489   1      9.6542090616262364      40.206677075540867      27.464176724409974
  2490   1      27.778746086965448      15.135882900344077     0.23742202723894079
  2491   1       12.00923784044196      17.457494403341052      44.295367276677901
  2492   1      28.351024943720624      45.782576687913661      6.0092719662646266
  2493   1      3.0524287330655619      8.8778747042600976      42.086251695648528
  2494   1      45.562264994925727      8.1930501802954403      8.5416985480108849
  2495   1      37.643656406982103      13.003558971252904      38.649425221586881
  2496   1     0.44570970678651833      6.4111754314415563        40.6553878964029
  2497   1      38.602645442904446      44.732547473857984      8.9651615255690942
  2498   1      37.358241783411074      4.7173871599551935      36.453265211570582
  2499   1       40.02763934523626      46.560831865559265      29.842439798463531
  2500   1      36.459407027538404      34.857870329103847      0.8455291651448591
  2501   1      34.769308737596539      41.008692154259649      37.502072044581112
  2502   1      11.643830626977783      12.945980495926262      17.172122523249033
  2503   1      25.050345665684546      40.104229263486907      18.624628987305812
  2504   1      45.841308851382649      7.1044683110086746      32.190944805432963
  2505   1      22.504607281368102      20.135672176580488      5.6836773183394271
  2506   1      26.410787143793385      20.033263194439108      26.166523268601516
  2507   1      30.451693659512525      5.6785132482486294      14.871808408489278
  2508   1        12.7576356491487      33.676565098506586      35.968603572658679
  2509   1      26.691094726492064      33.580734494962499      46.283960492050028
  2510   1      31.738597339821769      44.062812181190225         17.268487142186
  2511   1      10.631680853317066      25.127576864763505      5.3729158808037889
  2512   1      26.507427378793729       39.24625937042839      31.728616002366973
  2513   1      34.555907388165309      41.962349444602367      41.239986962593662
  2514   1      17.955377928641635     0.51772286864171524       27.14445715019118
  2515   1      2.4289845912913055      40.680201572303432       4.669273323420974
  2516   1      37.137648353250789       34.89131924112975      7.2331637641173643
  2517   1       43.65356013175132      37.053318007836324      29.442653316416568
  2518   1      20.992319091738818      22.154514526660897      2.8014615725505361
  2519   1      28.131496620438316      29.603188666418177      36.159402174385022
  2520   1      22.813004290819212      35.585534213016601      37.429398257117491
  2521   1      21.424630789799281      25.319510172336582      25.852395022009997
  2522   1      15.831536131298213      44.741370834559767      43.772262400519082
  2523   1      5.8382593274125201      12.114864740185403      42.521179173365439
  2524   1      27.609337127588233      22.410236159477616      33.197031143819757
  2525   1       44.65926418966724       41.22091666078434      35.084699301449568
  2526   1      36.627785465950346       23.34246525750476      3.7969361517501934
  2527   1      14.287968522890775      34.983310874724282      2.2751813081678929
  2528   1      20.127512311741825      43.118139726215702      43.822861895128128
  2529   1      18.168628570390659      42.041586662510298      24.803049156474444
  2530   1      7.8727275062283173      12.660766685124965      45.720056444392227
  2531   1      42.372461532054842      44.035364784676247      18.951240549094347
  2532   1      12.975100335350639      22.123159996395877      5.2836969901079041
  2533   1       15.66489201832696      32.046884195727301      4.8388281005483229
  2534   1      24.665195305620127      36.163775936832536      2.8780031281010063
  2535   1      43.855612576791891      2.3422235786994192      34.752445381033624
  2536   1      35.538183504769023      17.691496082669815       11.79314329319674
  2537   1      0.6359180127715488      26.556662549278204      32.017762357604695
  2538   1      22.617963126524849      37.722739208242956      41.208222855207495
  2539   1      44.442834915695371      3.2725977687437089      18.230631270412999
  2540   1       26.63652564808104      41.901048050899497      11.632237443988425
  2541   1      32.867982167155866     0.19780745475740641       28.70283906152558
  2542   1      15.651698042908873      26.049796776783346       31.62128098341779
  2543   1      4.9177623523934493      9.3411214817035439      45.737424693459793
  2544   1      43.980155788436889      38.055328098809724      1.4411077218787296
  2545   1      20.827677914128063      28.652600874527387      36.481904589898569
  2546   1      26.047998846861741      32.123752681845865      38.153312796962474
  2547   1       1.175692864100184      15.204145927346424      22.533111447958934
  2548   1      18.940347794617697      17.259741786243374       5.340353014272595
  2549   1       13.02841785953486      37.837922230102691      27.771597293329755
  2550   1      29.180166335379241       27.94661203235971      8.6512122955985475
  2551   1      22.028204682005487      6.7704562786446534      7.6095433578126617
  2552   1      11.890819779288902       8.174685893472148      5.2899490657115136
  2553   1      29.699463505716512      39.340138654739164      27.151120478885971
  2554   1      18.879335881252857       42.14159538181493       30.28880707681629
  2555   1      26.265160004685704      39.673553179170824      2.6575815012793966
  2556   1      35.029171518721107      27.954250737958134      2.6341858335437811
  2557   1      38.386290250750207      41.516136289251726      47.097469106689644
  2558   1      15.466448791445169    0.075581729468702397      23.210871229409879
  2559   1      2.3949062530657392      15.928981349904399      6.6728010090081602
  2560   1      43.802538723868985      26.405346549029534      32.271905527267222
  2561   1      27.563074477266525      34.126648794951258      13.220223100640792
  2562   1      46.761805826401726      9.8782115694905333      28.974699285338609
  2563   1      15.251509673237207      17.135501714991968      20.811663189800768
  2564   1      31.743508803176336      7.0959178674827328      3.4496050815293859
  2565   1      24.597399466044589        22.7498408368924      43.472912242279008
  2566   1      31.923128217957547      17.715829127107888      3.4239809848608482
  2567   1      9.9039187063875609      4.0548745038060723      46.051552940051309
  2568   1      17.051244464141714      27.918180568689387      11.779429624663459
  2569   1      28.962261364443304      29.368022611469499      29.078134780230222
  2570   1      31.396943497787497      14.747016216541638      26.480651515193031
  2571   1      25.978475445732926      16.868267548763423      3.1155898191420528
  2572   1      35.838600729035079      47.331724349641156      8.4414784187491048
  2573   1      22.964480726649622      33.995205754744063      15.272938522320587
  2574   1       11.32740014033141      26.772945507360866      37.757260241057601
  2575   1      40.705320203016782      7.0055630391207213      41.659566796912173
  2576   1      32.880107071063009      11.750629636275608      39.690671490985679
  2577   1      32.283502984733239      33.562023358035127       34.85409486470752
  2578   1      20.806700622967703      14.681000953306921      11.545980261162345
  2579   1      10.514662649775083      15.051677651635892      46.845737123351398
  2580   1      25.052053625326799      26.779448764984586      9.8125225675327599
  2581   1      33.317796983521646      7.7116738959110496      46.016003798236198
  2582   1      10.660324041845481      41.362299825548689      39.632472694805529
  2583   1      42.138187839468841      2.9329035260685838       1.380319447738152
  2584   1      43.768807737455234      43.778400623315605       26.08489434233249
  2585   1      35.268025521024029      14.957553567035108      40.899842874198058
  2586   1      31.879776011167039      24.863587270071218       9.133038119915275
  2587   1      44.988311978291478      41.843377815077346      17.170606386685954
  2588   1      19.727286864711381      18.673034535508435      19.144517817099072
  2589   1      14.412786390131664      38.081555387931772      35.830117645831919
  2590   1      31.009944244741263      27.623865586621232      1.7245432071578066
  2591   1      14.846912352788912      40.629507784876367      46.882006063480162
  2592   1      30.787833163807569      44.889066158058853      29.613173633410387
  2593   1      31.398316014485601      39.274865334208869      46.523084465521855
  2594   1      21.514044172781496      45.295998815874739      2.6583236362978129
  2595   1      5.1249312074281157      40.699388103729973      21.235897113689493
  2596   1      40.129257574562331      11.980667713282037      32.172040222029892
  2597   1       13.67703566623309      30.286935414127562      11.472009055743682
  2598   1      28.078410371431367      36.332286767215109      28.881698202577393
  2599   1      14.741207465278723      29.348170899603314      40.382159489198791
  2600   1      8.9096121795277536      33.888371369834942      8.1945317912837368
  2601   1      45.133712597447655      15.443608163088022      6.5005674155371915
  2602   1      1.5897882427825683      46.048140167272464      35.300808039248267
  2603   1      41.119684770802309      24.248088916518299       5.018421058676573
  2604   1      2.1833034731894063      25.422525832149937      10.407429366692055
  2605   1      39.147314817830178      18.486112529633665      11.239756009252286
  2606   1       44.21905348541064      11.388618614838759      37.876999505935807
  2607   1      2.9869683559479601       5.225712113381169      1.7285761437112463
  2608   1      31.705663531755604      29.269234229218593      34.108887567411621
  2609   1      17.595337520963476      33.181789708804857      1.6904348698034402
  2610   1      40.976115326654437      44.292328946036875      11.817586755856208
  2611   1       47.64531375057237       39.56463630980663     0.98058347048676953
  2612   1       5.069478255395544      18.963868321065256        13.1973521191236
  2613   1      28.678205934916377      5.3468225247496175      22.670829117981029
  2614   1      13.874571459769847      17.920741180784496      47.946540274489166
  2615   1       18.92483080682134      28.773458468186778      33.181804148076026
  2616   1      34.461875519517697      47.348638631741956      40.661423941081566
  2617   1      45.189477770775255     0.38794979218044956      14.787723949326136
  2618   1       31.11532862034187      13.393532115544861      42.870259300464824
  2619   1       20.90350598398545      7.4541371505999461      18.085898354806069
  2620   1      12.261203769138287      31.151943652894204      7.7895633665486592
  2621   1      11.624256780753409      45.541515109074027      43.478021169723377
  2622   1      14.155543685385879      34.176304108639165      27.396988854013184
  2623   1      10.475004084491747      24.162115045031683      40.291124206752421
  2624   1       35.64968866560163      6.9935088853413552      23.932451031791473
  2625   1       5.214724074291988       13.73972001166711      38.771265312441969
  2626   1       24.55066070904612      35.792024542156653      8.2805469790031996
  2627   1      24.772026072491084      5.4492315068909907      2.1879831677189374
  2628   1       42.79168405910562      43.961654989776093      30.366122905283518
  2629   1      28.282921300179929       26.72944130169704      39.481445213969437
  2630   1      38.869826120697397      5.4577819504169334      30.929322891622519
  2631   1      1.6157764322032897      14.509149514168378      41.357307542958097
  2632   1      28.983527870088135      9.3806911119964465      14.199655467012427
  2633   1     0.38078024181914405      46.411120061380885      21.683246848209112
  2634   1      28.979305423035896       4.649087232376738      2.4822243985146479
  2635   1      23.816350433122313      43.242379797467109      28.351551719599946
  2636   1      35.739289751328862      1.8349131579411504      17.539855306437016
  2637   1      37.215975980994486      34.032281647638143      29.867937894828028
  2638   1      1.5578535423986879      6.4720579525549393      44.636621542322018
  2639   1      42.407881124066151      12.339732535669942      14.370353257430031
  2640   1      23.308839281246474      46.245251094917919      21.834501019619136
  2641   1      29.100599354012189       14.67045972247162      12.218427871608203
  2642   1      8.9035621956724853      13.863960082918517      23.299955136913791
  2643   1      46.384658183691869      41.586413653716718      24.304260179924093
  2644   1      33.691656527024463      28.034260031911945        8.04215781877053
  2645   1      5.1479228578930751      5.1787325836023559      23.402427017988806
  2646   1      17.901425444082541      31.273051022154796      27.227193918204716
  2647   1      3.9665476438030272      12.763175667266342      25.237210494130135
  2648   1      45.301127711953541      46.822430627941337      9.3259709899721077
  2649   1      33.883299868803675      12.914717534494363      34.124188887850586
  2650   1       6.119823531990475      22.271061610665111      34.625933702462589
  2651   1      29.678668107860418      3.8051524946015665      8.4097513739768495
  2652   1      1.0959593687879088      34.792915116748063      8.0265562769127126
  2653   1      43.773645873680451      1.2529580309470896      11.105278260131112
  2654   1      43.957503821623234       31.65456278313647        7.68474123041051
  2655   1      4.2414813564265055      40.461298226015657      43.973385040851568
  2656   1      15.876386121877829      31.904716351120115      37.717116563729661
  2657   1      17.059867085393062      26.139523084563379      26.021636907445181
  2658   1      9.2014453444997759      18.223957273617792      7.1615725492027096
  2659   1      18.359327921539318      23.570414829603465      45.073619058461645
  2660   1      32.885485285461186      4.5466782502353604      22.965070348776734
  2661   1      36.549706365520215      38.748079212606754       34.94513014715389
  2662   1      8.4647181528447639      33.229670750060095      1.4608449436650528
  2663   1      31.769813398195609      44.165153912097551      39.638513838146864
  2664   1      21.782802659986665      31.273794419573676      33.561202205872974
  2665   1      13.119446569438075      32.595938668371751      20.643453206385885
  2666   1      18.779935869215223      10.849633731476841      17.060362319543106
  2667   1      7.4510581816650614      23.304612611321296       6.482084508018759
  2668   1      41.934362933433974      33.714417744690046      33.283455216390109
  2669   1      44.633596410269128      15.084604508804464      12.843916960637193
  2670   1      29.576443544958163      40.355266256538123      16.587122385761855
  2671   1      1.8838580685427246       7.181621682922561       28.19547737659531
  2672   1      33.275281603479506      3.0258561240326691      2.5328238931236817
  2673   1      2.1750988764683519      15.197852993102874      18.358274142700992
  2674   1      20.519280904676954      13.202738838091271      4.7361836511205011
  2675   1      41.565164221981924      27.104642793079627      28.840644569430939
  2676   1      23.125999930955999      15.669438110909812      6.1670474503661286
  2677   1      46.528699854730291      9.3816212774865591      21.582321735398221
  2678   1      37.229705685441182      28.087781614293178      32.910500049500769
  2679   1      36.254649513302027      34.401005072977838      34.068743890083681
  2680   1      37.135635956729253      1.5779489965805182      24.673509099675154
  2681   1   0.0077121470372735999     0.97506815119473123       26.37097515484411
  2682   1      23.329359130018997      23.320492185972157      10.808223696928906
  2683   1      30.062026673507084      23.319271928415588      39.635459153823092
  2684   1      46.230732812958557      21.481235373514153      27.479795365389315
  2685   1      14.795068434788918      20.694484439266354      44.730294754394805
  2686   1      35.806114021948147      44.996301679319643      5.3815867634206747
  2687   1      4.1908688538226997      39.221669943778906      14.443305845816777
  2688   1      8.8812936904823516      30.208232202467013      4.6934278396198366
  2689   1      2.5522331494028641      37.878592941777782       29.04237110566185
  2690   1      29.880897504096282      37.318640877941419      38.839664227206541
  2691   1       20.23766602723132      11.849254737094498      21.125791436392287
  2692   1      43.962915495531576      47.671307482457323       5.516282354684602
  2693   1      32.462174027274699      15.969439181919235      47.281597966317989
  2694   1      7.6647117116117949      43.555224071067499      31.940518157453685
  2695   1      1.6354690673150736     0.81097951903145771      31.191596196336668
  2696   1      38.304944849928461      43.101875286546829      30.838140927859683
  2697   1      45.778757447628266       10.17037858670461      11.853837432117421
  2698   1      20.021541542825272      35.341071472254846      27.448937591926381
  2699   1        43.3546072241205      18.853777536369474      6.3465534756835345
  2700   1      17.935676603790355      29.232047963511999      24.097247126941152
  2701   1      16.784041337833592      17.149644928333881      14.203574386393729
  2702   1      27.426290744405211     0.88114953956321285      24.585664180755181
  2703   1      2.0301409999888174      31.751675391565946      4.7161618047224971
  2704   1      16.141432509007046       33.43174809469842      41.829932759411044
  2705   1      11.005287149565058      22.224405673795236      13.181063074745136
  2706   1      24.114069621040407      12.879479787387496      10.961233822797894
  2707   1      2.9581248226897392      31.089131381877696      28.618989484042352
  2708   1      2.4029160613902478      19.955787292197449      31.438003179471618
  2709   1      26.304459309951792      6.1739073400397428      8.1023308050570719
  2710   1      21.861557791066925     0.41531388650033763      47.627303100453275
  2711   1      39.742101699271956      3.1958731694945754      33.870221525020128
  2712   1      36.383099851781608      9.4607692386441649      26.794779761784554
  2713   1      3.9928824569820964       26.51818092614878      6.0310200222452632
  2714   1      13.976684718323817       14.28370940221499      8.6416395306967395
  2715   1      39.318294719142962      46.140462998018904      37.461928367253179
  2716   1      5.9267795311948417      2.9486016423700558     0.81088139277290883
  2717   1       2.757738157425317      11.645569150003022      20.310465595912817
  2718   1      8.5877196418992146      43.871984933475836      27.151234371055143
  2719   1      34.233253347288056      5.8392714293868959      0.1168771325315232
  2720   1      5.4231179657993858        33.4218005172945      4.2423633538463417
  2721   1      6.4744223999384358        17.3295329886936      44.918474556014338
  2722   1      37.886325312919638      13.348173151137807       6.078705634559463
  2723   1      32.369135955758949       39.84133793381686      30.854429972238144
  2724   1      16.796646305992557      36.560041397471153      33.247073959281465
  2725   1      43.804227329466542       12.08276837430931      21.504007050668172
  2726   1      10.288133568748883      9.3823970160099606      20.433878881133495
  2727   1      40.638546736772454      5.9667141542969855      14.822385568972731
  2728   1       8.952703997797137      7.4769286893688705      25.551338740721654
  2729   1      43.591965772891079      42.100341976437974      10.036952593447815
  2730   1      27.087144010156308      21.493194398796561      40.140184293281152
  2731   1      20.878615787614706      27.886182246001219      11.921248057335356
  2732   1      41.699725328123073      34.797757742644734      6.7120583964316411
  2733   1      28.540078702005484      45.206931965594592      11.737808795819962
  2734   1      8.9648289017042728      19.029750870887071      36.539171170181746
  2735   1      20.606659502300971      4.2792461618763067      20.242323092554575
  2736   1      39.583341106272186       47.66749474159721      41.574744562934562
  2737   1      18.148414596393657      26.501756419700676      15.345020460667197
  2738   1        23.9877708546436      17.139285596314455      18.893697294132068
  2739   1      7.5202017975620361       30.99556988339268      28.097884116356632
  2740   1      16.829536613604716      21.240386384205916      47.929172025421593
  2741   1      41.427512016242517      11.264884212527424      18.569846380143254
  2742   1      24.713443218705486      13.386787557610958      19.458646063690587
  2743   1      14.549788294114368      42.885819987734109       30.15286584196501
  2744   1       12.74740848792381      32.562441131598924      46.677016304638556
  2745   1      8.0126444702297572       9.057625151112898      4.1625718577581345
  2746   1      41.812002502006635      5.5119661691613402      5.1185435357181692
  2747   1      23.061527039998996      1.7011624517900112      24.754906066190365
  2748   1      42.825551441523189      45.340089008262943      45.897555160138133
  2749   1      28.002002569460608       41.65207612213355      29.178246155693479
  2750   1      37.004492501369512      4.9945351729734915       27.27814989381125
  2751   1      23.041636154938345      35.476715454562409      24.258645781349408
  2752   1      6.8618517523333198      14.268868142143219      10.588381811430201
  2753   1      29.579708735923973      20.720245995475512      3.5131998755567277
  2754   1      33.598936009903817      21.050631146812421      4.4228425019427027
  2755   1      34.047839503849879      1.1859239502182208      21.717185720934822
  2756   1      31.771084046908697      46.398234851511745      20.328378797514439
  2757   1      14.769924243972937       31.69690039867168       24.56172526101642
  2758   1   0.0080197943278751994       10.45013117180612       34.33005558915238
  2759   1      9.2994599244657259       36.89013341333407      35.517539086885186
  2760   1      13.889718549666595      8.5777131050210453       23.61408338350531
  2761   1      1.5325872831926541      10.640848432054689      7.8283931187301725
  2762   1       42.45832017291076        21.4536992444683      28.055711536418698
  2763   1      0.4107359354182224      44.165926088906062      17.743047572888813
  2764   1      3.9663617448390047      44.632199401879198      32.239419408301472
  2765   1      30.048389551600899      42.939278272499308      21.324079926910585
  2766   1      24.820904943305358      30.077128695466712      18.290258838749466
  2767   1       30.16429791068704      46.513921429540559      25.863259772486927
  2768   1       9.876047039332331      35.076942467026058      21.235154978671076
  2769   1      6.0717588604094113       37.77105885257933      17.826909277230811
  2770   1      32.604312422622968      37.404649316510074      5.6612847289911885
  2771   1      36.495086841634965      23.928954415431196      32.140688391831809
  2772   1        22.4647957700112      29.683001033413809      4.9288565140179745
  2773   1      26.454213762970571      39.097908456851748      8.3861183308347353
  2774   1      15.941689846787707      13.472485845438566      21.075191941783253
  2775   1      35.653431110472937      24.416578698149088      8.4353843191126714
  2776   1      14.171533181668387      22.319339710748068      40.980380893471342
  2777   1      43.611771692988789      19.168930800645988      10.661346728983041
  2778   1      4.6849581033951839      13.401828195131314      14.364835433388851
  2779   1      35.197549957133056       16.43884566635904       5.585592820149115
  2780   1       29.25955708190655      32.704520924324733      1.0450551659738543
  2781   1      5.0936728269830924      34.602568634149449      32.314158895726166
  2782   1      37.440482218775756      15.071340228503276      31.678927407619547
  2783   1      40.502146014810428      9.0733442963711006      34.689068982944846
  2784   1      36.004002753270456      14.244676509160071      25.251922707088244
  2785   1      43.663048658121269      31.281993285428317      29.639456072938899
  2786   1      36.791665147886476      4.4442692680939819      43.447916299038823
  2787   1      6.8700144225368351       1.895374705025088      28.509605623186829
  2788   1      18.154281350861616      38.827986618956942        46.2972596251157
  2789   1      28.973927208637711      11.853038618416981      19.207825540723583
  2790   1      6.1726958181005429      16.553135317021336      36.355318551849813
  2791   1      25.945209576255635      21.128505216373267      9.0275895345205104
  2792   1      1.0061404887375696      11.823928603461937      44.650626714890265
  2793   1      47.782993235503056      9.9405402107315126      46.534897630942297
  2794   1      34.342943545928463      2.0918773193017826      10.406201513198875
  2795   1      9.3620031934854335      29.184187408387572       17.73742003438413
  2796   1      26.303798872794246       1.379169763440931      1.2712019793132383
  2797   1      37.880695143225637       27.26336754783005      29.443119198484958
  2798   1      14.453148059114021      23.672823811744845      24.590773108199549
  2799   1      14.711197000189753      26.528128503552704      43.618589427809965
  2800   1      30.775838240112357      2.3887283456128561      11.975342209980582
  2801   1      20.966046947818359      26.037114102422002      46.504482857707274
  2802   1      2.2586271340078365      37.661893953106564      17.629491648042158
  2803   1      7.1425185941798635      42.638182310386448      38.883671306915076
  2804   1      39.403076339517142       37.43466621363558      30.683696130019101
  2805   1      40.768367952115334      21.493964417157716      9.5091782855608642
  2806   1      23.581895865432767      41.901954491768294      45.053771330125343
  2807   1       39.27664115955281      33.675751115978208      3.1554412023480096
  2808   1       16.85578918300785      37.805923907414524      27.913415726001652
  2809   1      26.209922578197236      33.538268567592191      16.739656935171741
  2810   1     0.59990549117152803      24.848055800420234      6.5048184731214196
  2811   1      45.563418519804245      4.3585709802663795      41.831370420946158
  2812   1      11.392231467398524      26.174000183414002      15.777298258941965
  2813   1      46.208853290083155       10.16228115885826       17.82647206095654
  2814   1      44.631888673980235      2.6969530464246336      23.959168099968334
  2815   1      24.385099098119888      27.509061432136821       36.45837413901495
  2816   1      7.0256415048161287      32.022620880007111      16.732089105277016
  2817   1      11.953717974035703      24.956083501415087      28.411187991446003
  2818   1      30.478602211144661      20.297833380822503      42.868042049777884
  2819   1      12.788577672798917       25.91703602205337      22.910952052180107
  2820   1      27.681408543885379      36.959591015741211       43.33515394253088
  2821   1      13.652540137723987      17.573494304850762      11.538105729205441
  2822   1      20.955771215903425      29.367691945819566      20.906955316364183
  2823   1        24.8214131708542      43.494477649955314      2.0735771979333597
  2824   1      33.564691963870303      32.930778746385911      30.485859153962302
  2825   1      44.015879297204293      13.456399872089126      30.906501691968469
  2826   1      27.721492468291473      4.2940874219480829      18.295580811821111
  2827   1      37.376125605780743      27.875535277161521      7.4396831897165185
  2828   1      14.538033277072373      31.415952156853685      33.411661675231457
  2829   1      43.362617032445009       22.88058347866253      31.111755646147003
  2830   1      38.591935789118992      2.7118846196746413      40.569748507135714
  2831   1      33.211310342469673      14.758604831881334      10.984615120611965
  2832   1      6.7270825240067378      39.438406968044788      37.496000041294579
  2833   1      22.352235451669387      23.503746552432638      15.089452259879927
  2834   1        40.7068766683701      40.579370707123928      1.3667845339490881
  2835   1        5.10327802762344      45.785441437657411      27.498838344056566
  2836   1       10.75834939888583      28.927223247026937      24.871073827622276
  2837   1      26.043716694841251       11.65780158300756      15.117350217950765
  2838   1      47.595205735897906      6.0335775318203471      24.767073585071671
  2839   1      31.822292707577795       11.29746495975586      12.535217024189688
  2840   1      6.0208226728477676      16.400993020175576      8.2707411764176797
  2841   1      12.223049261339419      2.5565855281230099       23.80257300169508
  2842   1      28.737901987056418      20.614576893652007      23.294897120996794
  2843   1      10.922338946502931      16.189068478550219      14.961878132537269
  2844   1      28.888421625431736      31.010618193596123      6.4033584599841369
  2845   1      23.926504148611816      11.973494808345903      5.6544812608641069
  2846   1      35.547672031138987      11.920171360261795      11.989946049719073
  2847   1      41.777751342298821      7.5529692278041347      8.2484903269817327
  2848   1      7.5398926556788037      40.055846621500862      41.173178683329752
  2849   1      37.495243687393781      9.5216517597575479       30.77601340770368
  2850   1      41.068642579227344       5.958616726450642      20.795020197811844
  2851   1      42.823858221642915      11.007920051166792      25.703500173381393
  2852   1      8.4219877102165253      31.765656718646476      23.865742898515162
  2853   1      33.808543063452973      37.836291768083981       1.004911488645917
  2854   1      44.832097114119705      5.6476101514689026      1.9282517251412017
  2855   1       9.683763282082877      20.822983206557865      43.283831827469072
  2856   1       13.15602958105657      41.471453365623958      42.561239981317684
  2857   1      7.3247147852721355       25.24051068528459      27.664198637707297
  2858   1       1.697624897297688      10.876848416627961       38.74055283362874
  2859   1      7.9656569880850405        29.4411515697482      10.603766241145992
  2860   1      47.487398373697232      41.112750503684865      20.025034515542544
  2861   1      14.091841143186322       23.09097542112551      16.259124083258698
  2862   1        31.7388638734624      11.768676844063148      46.620173161388294
  2863   1      24.831854033734135      24.090266142591211      26.770692631753612
  2864   1      25.161752253681076       39.54473590466246      24.480389455071073
  2865   1      3.6549733394082287      37.404929791745928      24.763145441280301
  2866   1      6.9377704674386678      21.290916175665821      25.067963453510469
  2867   1      18.261861941252555      26.652985320419248      20.359023038961134
  2868   1      23.920146580071023      15.053298163884456      14.091814182687806
  2869   1      33.643960227084541      41.288755754667534      4.7002220069965297
  2870   1      21.995999893863658      42.009588339822137      24.944867589146341
  2871   1      26.866322212549928      24.636168087530773      29.969569902780396
  2872   1      41.807033154006746      47.396081957078465      25.691667841990352
  2873   1     0.49422758667804478      46.562348962099449      26.697249426503049
  2874   1      7.8902306245336362      17.009637480602922      39.982287731643382
  2875   1      42.861308194015585      7.0432820765207858      0.1146753176510496
  2876   1      39.579769121254046      44.549293107397503      4.6839329626180701
  2877   1      10.938214373423881      44.108197156290984      29.992047079292337
  2878   1      17.800543341805835      3.8025451462992526     0.92636125390849433
  2879   1      11.929687348322718      19.383429496473408      15.577759326834553
  2880   1      16.154517200270739      14.022751750318072      4.9054255365556845
  2881   1      27.789175215977579      41.101810217254041      45.348012560921049
  2882   1      20.409127189187458      44.471623827212468      27.433254109856332
  2883   1      40.410686948606354      47.653046118439093      18.558014048752213
  2884   1      1.4126022439969343      16.576930771418745      34.386809728990755
  2885   1      17.264968071104967      26.343624060225135      1.6219727304255742
  2886   1      42.622377253316834       47.40787026551331      38.927057346170798
  2887   1       12.97274795693377     0.31153220911264801     0.63202257717969601
  2888   1      42.481400041387886      4.2354047818600709      31.090141654295195
  2889   1      13.996898692320826      29.823539645024617       18.09966822650399
  2890   1       21.88016585855582      29.922415065428247      29.655441656188877
  2891   1      40.422054284069915      3.9893857478878321      11.510246684866191
  2892   1      8.9363989573705478      16.696925530039483      3.0487563535213247
  2893   1      27.490763635362207      14.849425198683015      5.9978055649309443
  2894   1      27.829321573089256       25.80090133317902      2.8337118343727763
  2895   1      15.428344279604687      13.586061448417579      17.465330744278191
  2896   1      7.1338080376470572       37.87580422626813      2.2673067762109871
  2897   1      28.303117300316121      39.597102816099792      20.017466685647832
  2898   1      10.855365206139846      39.225094830322334      35.853648096715531
  2899   1       39.08384206764795       4.838262602403816      7.7005580495786834
  2900   1      34.886286203407607      31.092198482660805      32.999718940196651
  2901   1      8.1030579780166647      17.559903385482428      23.812521326415805
  2902   1      38.757656730185751      7.4173252454965635        11.4387821375587
  2903   1      15.533124550682841      18.488985815988748      4.4220554045289795
  2904   1      35.064851332817675       17.02533482428548       33.92934506023073
  2905   1      44.220996937989284      8.4023323772585243       24.45965301615189
  2906   1      23.865492235246961      36.855348403917461      30.602935323407802
  2907   1      4.1450780566378853      21.804844498387084      10.800655867034187
  2908   1      25.308136665542747      32.768181732338391      20.971798153013211
  2909   1      24.368348823935648      32.988884948108904      5.0344278658495103
  2910   1      12.522901781246778      37.629209203651797      46.481117944755468
  2911   1      38.097197475389343       20.30351075766767      28.529732457564332
  2912   1      36.252915615896001      8.5123348172424613     0.89686448899104954
  2913   1      16.209481417045762      19.948917020346194      18.395716429208619
  2914   1      10.654434004674082      19.456468115708912       40.94966841465812
  2915   1      14.384773883908517      27.756447072017309      8.8150994018116187
  2916   1      29.818010387728247      18.804019164693738      27.084820878345123
  2917   1      10.271829896285395      26.229896302282054      33.320626392785087
  2918   1      39.689449261985018      17.344469325372586      6.8070777270754945
  2919   1      31.742436349977275      44.312986298449836      6.5847543178581409
  2920   1      32.378307554635683      30.932672176938269      2.7935681570448385
  2921   1       34.39777347509046      2.5278359001549551      25.847286094565625
  2922   1     0.81324606450684001      11.899109123479819      5.1394146378226653
  2923   1      2.5626469481648062      19.614561335003064      7.8196766906441848
  2924   1      33.705870635215575      13.731553835266906      22.350410131691572
  2925   1       15.05861289596869      6.4205557178554891      3.9837130421649216
  2926   1      44.370478165152257      8.5148712501176149      41.199042545520214
  2927   1      44.998008139274916      45.453875669731104      36.676639693559608
  2928   1      11.124225952125052       28.84072676461124      30.786762427090263
  2929   1      5.6292952994157357      32.279585041367739      9.5984353120388839
  2930   1      36.213443735684123      38.199265763473932      5.1078974450467349
  2931   1      23.716303447852464       27.27008669559093      13.404458881125734
  2932   1      22.430535978807924       38.23143768035203      46.790047072360103
  2933   1      17.236836049928353      24.068435053481181      21.759156857019697
  2934   1       30.79999062211629      18.080106918732444      37.110161083081593
  2935   1      5.3779544336799319      40.803226014145778      26.971389277165571
  2936   1      29.717622216303432      21.156041345419112      8.4516733634911283
  2937   1     0.86228092860743999      37.918858114467191      10.495837854804023
  2938   1      43.602568380252031      47.997879892934108      42.484387189320536
  2939   1       24.60850715028527      34.629416475864303      33.830396564447156
  2940   1      10.247412682727658      37.304437338754724      30.209810921380104
  2941   1      18.178370289992735      24.256562447225864      11.404821185346893
  2942   1      46.091052168296827      41.369714665045493      12.891380722304405
  2943   1       2.719018535080906      13.630566471591836      35.842498025929828
  2944   1       37.84640565073552      26.772131524832496      4.9440978707469316
  2945   1      25.746870213156779      8.4829105942839327       17.27377495569927
  2946   1       31.85247856654404      19.349921109633307      30.283698149371915
  2947   1      27.460355185319294      42.923467869593978      19.079853253782336
  2948   1      47.031769426132755     0.34820648720667358      41.396697279647228
  2949   1      12.401633354965449      21.967441512434601      20.314716867983275
  2950   1      8.8600534006129585       43.09468447396803      42.510640486708638
  2951   1      28.677974411841859      17.271934907261659      9.4127360854857898
  2952   1      25.223822381225432      6.5630077591970259      21.439919682983806
  2953   1      29.002614988998026      33.024340244870928      31.006964521648023
  2954   1      15.387623393583461      41.508101771162345        27.2412627845248
  2955   1      1.1054478951578641      29.021590394340048      8.2233590334350453
  2956   1      19.001614500649495      22.425532574211928      18.579569047540552
  2957   1      39.937669334560091      30.659286884922381       30.18472704740951
  2958   1      13.547798173991698      11.556052477499534      3.4745617373100526
  2959   1       40.14017031965011      25.276358401378349      7.9633662965365062
  2960   1      14.650908127296907       25.45796201610041      6.2825585071897638
  2961   1      11.702065405102685       33.13351589342777      31.531969724386162
  2962   1      5.2849979849890891      34.022022632666179      29.427517656627131
  2963   1      29.561732129255606      36.506808257563897      34.370745505986093
  2964   1      19.667663336914078      5.6436481934134424      4.7853019597184403
  2965   1      34.080392123335635      17.558915965747801      27.301493693275557
  2966   1      45.598373529743199      45.991361987335821      15.241241167077561
  2967   1      34.938619464358531      36.751847942623257      31.262105410288346
  2968   1      33.369204951580421      27.175719548277815      30.052173675312968
  2969   1      6.2712482117320842      19.397314245943974      37.947976742047004
  2970   1      32.258999839068345      18.037220439169609      40.311100152350647
  2971   1       21.68593909670944      31.913131974646106      27.520402139233866
  2972   1      9.2068579973174067      33.057302729229434      14.109801968389192
  2973   1        5.07283329498288      11.334735622124011      5.0802666086964718
  2974   1      6.5440098963927991      1.1858109746574672      44.950749788913541
  2975   1      26.682064166030969      36.589250928575737      21.748044409339251
  2976   1      32.168700501086526      14.147011555666703      6.2114991703416234
  2977   1      46.382818936854143      36.346596703759573      3.9161158205217266
  2978   1      37.432041082949993      9.5296056474349147      41.585243608982537
  2979   1      41.924371715303209      11.950157945223763      8.1352101440824569
  2980   1      10.569808654394194      21.532763863934829      8.2305974990897379
  2981   1      29.699599572699597      8.1005405797134866      19.772774310282106
  2982   1      39.014340743205963      47.910010279799728      11.424360255514076
  2983   1      36.402718434620184      45.844530488154987      42.683913190149525
  2984   1       5.102030874881299      35.336860336594839      18.781660091464328
  2985   1      47.579819047296702      12.008321467981881      39.564399816974955
  2986   1      19.906964385771815      34.542303908457242      39.695780418430047
  2987   1      21.195637771039866      14.662670042448724      18.709844675800127
  2988   1      43.849468150672678      47.520078581738744     0.50227977639066235
  2989   1      12.650868065605906      38.268977093170037      32.254646404045204
  2990   1       47.02777499458049      24.389891689659418      30.651231394755044
  2991   1      32.891658872746348      6.2525578818808851      11.386833399645509
  2992   1      17.921638009080674      27.609370569968029      38.748286751211126
  2993   1      4.4036068464260012      36.491378399967587      5.6910791795428226
  2994   1      13.938860351791245      2.1906817114713983       25.86546698731317
  2995   1      30.889285584971262      2.5399572463314239      16.989344788274522
  2996   1      40.290962018279565      7.1143196113284155      2.9533689985140432
  2997   1       26.50899585865325      26.756158372869667      27.671766467602016
  2998   1      32.613800948992925      31.633324594102064      5.8580874855135221
  2999   1      47.743786060789759      9.1542993235292407      39.000039490075082
  3000   1      27.136210604719462      46.213252772229751      21.976319452291037
  3001   1      1.0251164940052799      41.686522378938577      14.907783979892049
  3002   1       11.96886506393245      15.613055425651631      4.0787311004621474
  3003   1      33.767314448315766      9.5352260752133287      7.3742494885480374
  3004   1      15.129504925476942      25.132755016102294      38.564434132879185
  3005   1      14.908683127870564      28.275728704836506      28.393819742378433
  3006   1      25.374490246284374      36.814444360851134      15.728162788797114
  3007   1      32.595493481582352      17.123989181580143      33.511159390411272
  3008   1      29.097667798800508      42.897928711350403      2.5663646451777602
  3009   1      6.4983770802816965      35.079896175234211      25.915313884702478
  3010   1      41.559493083379621      18.884287304427755      30.383383553630967
  3011   1       30.49694555941258      14.413495561110995      19.352081664846345
  3012   1      36.492882720741349      9.0444113219901556      37.499705765388896
  3013   1      26.768959013980776      25.987547441676202      33.875330452464496
  3014   1      5.1924982161538944      17.948740719266301      23.761350212247709
  3015   1      17.363259972195223      6.7602499605306141      20.834024864839765
  3016   1      34.804166741722355      13.517772186796261      27.398949124936646
  3017   1      25.288295272182424      20.531283418316828      2.8520610671595699
  3018   1       32.76490244095956      9.8496359224466055      0.5515502738304624
  3019   1      36.189317085188947      46.798187778497706      46.421828108162082
  3020   1      5.8677725519456922      25.263801077399513      9.8049547376380364
  3021   1      3.4835253040089071      8.6066720812110855      23.330962470681314
  3022   1     0.80296630053122398      13.891709860712304      37.680128900922931
  3023   1       8.952518098833119      39.345952423981728      32.553547654892995
  3024   1      29.858852485300726      25.387053185665962      32.664961339855758
  3025   1      28.247487807072634      32.482802544046081      33.657823081638128
  3026   1      20.927846200781822      8.1862388675410944      21.389320188374768
  3027   1      17.144477835003606      12.529579226598333      7.3354035071501471
  3028   1      28.112156284950107      10.383191133012335       6.481175696957644
  3029   1      45.129490649636743      22.644152903958346      9.0351573644152268
  3030   1      45.351009345247242      35.899260643896966      6.0941371372973663
  3031   1      37.773387317341964      14.665043333396316      10.463509752926242
  3032   1      41.595618983826299      29.481458735743281      31.691514824280077
  3033   1      25.113668665735929      37.831892748318232      44.136990141719643
  3034   1      46.292673886690885      46.056754994679679      40.266540447017988
  3035   1      16.044363484781243      45.291636739439269      27.602495995291516
  3036   1      18.139843576961884      20.955685088807286      5.8529192037746114
  3037   1      44.952583428036846      29.442977112613853      5.7047724889206481
  3038   1      20.527834104439268      45.711766203569958      24.272714647669492
  3039   1      20.990022375611243      27.326688887176768      17.777008525100623
  3040   1      14.508022811983407      28.595909760803082      36.648091613842624
  3041   1      34.813647093313094      5.1504340362309602      15.264896684120828
  3042   1      38.340364441939769      11.406243037540536      26.257253636195358
  3043   1      11.675827642457303      22.210186170672792      38.051613606959194
  3044   1      10.622689894412208      32.192294490462793      17.792247657584213
  3045   1      46.980523643902529       19.32578920664066      7.9444936430930593
  3046   1      45.539273344460767      43.713705700423063      6.3751686437115742
  3047   1      21.753528275949002      11.752671702156285      8.1369924247036671
  3048   1      29.583555820038701      17.463593858994926      43.787040488870531
  3049   1      30.553378596118023      43.548640852360037      46.315393243935787
  3050   1      41.388489143874487      5.1779568450789357      24.550869872253529
  3051   1      29.208605534441048      23.673133610581182      28.153592291918745
  3052   1      30.948072045818392      24.029052585792556      4.5822248254437605
  3053   1      13.220672618479616       18.55434242495469      8.0712151755886854
  3054   1      10.765128926390309      38.040391762130746      39.552504550817574
  3055   1      18.484851991040625      30.427331226330793      41.740713868715162
  3056   1      25.019566918239871      24.444026094663069      6.7526309122043191
  3057   1      42.864211846197634      14.664237684568224      27.632329914799197
  3058   1      20.817692485292323      39.455123856662297      44.086390647110605
  3059   1      28.442984148766325       1.050999439324128      20.505825202532876
  3060   1      30.277439260323618      34.471758065721602      4.8527565564064128
  3061   1      20.568554990460491      17.789725880825195      14.496782607422885
  3062   1      41.723586400099407      46.730859130479942      34.515027858271338
  3063   1      3.7056846694809074      35.593824497955467      11.648006298226196
  3064   1      32.287105724903014      18.066551354225517      8.8593488015413353
  3065   1      2.9324359757023055      2.4081881432143297      44.789931026240865
  3066   1      30.964631799727037      11.582020570865952        3.42971806573357
  3067   1      8.0288976346426946      27.597401740137826      7.2272918053146578
  3068   1      40.031165810842126      11.521848373888055      11.436192586905111
  3069   1      4.6231564106586482      8.2211532952880546      25.415397505870377
  3070   1      10.656361103680675      18.625266056035073      19.008103626720523
  3071   1      9.2600148982802839      18.882230217395708      11.874449833482384
  3072   1      17.293381108466587      34.667367905497322      30.030952105786895
  3073   1      13.538649290332677      35.901572970072749      43.684308683921913
  3074   1      18.875874903660709      3.2914661271235728      23.928211630096829
  3075   1      46.282366348515097      1.7979147767245585      27.877440154598876
  3076   1      47.580858516368863      2.8199774882669808      46.261284053712927
  3077   1      26.647198733692729      43.651049834501414      25.832547293673699
  3078   1      44.329724514096327      6.3640735205469356      37.714887125381026
  3079   1      24.160276957371302      26.424245197013754      24.682304783063053
  3080   1      43.107983351434029      5.2968316440705694      44.134574895555176
  3081   1      11.734410496242903      14.272630119952819      20.780950710987547
  3082   1      19.535944648108472      37.599573009836647      30.466994088556532
  3083   1      24.371145848406293        29.0144696480065      2.3826473485992863
  3084   1      28.353828630388787       37.78599752230933      6.9023275425937243
  3085   1       40.98896755629319      42.572031931617971      33.745216200602371
  3086   1      2.0184875231619888      13.240094698459238      11.400505210537004
  3087   1      19.039084354794987      29.360865238020367      2.2744391731494771
  3088   1      44.420077479860865       41.58009116917674      2.6012576029989503
  3089   1      25.057685029468427      28.744896161067157      41.102119346481615
  3090   1      31.470666822642645        16.7580065845404      23.680043671962071
  3091   1      14.124327850273247      25.426398091447027      19.319015738587133
  3092   1      20.105590235962598       26.01282149235416      5.4591910228229281
  3093   1      23.152104951189855      3.7301916892318703      4.4376979867170192
  3094   1      10.299560397464477      35.410951791108445      1.8028286421357169
  3095   1      5.6390917166521053      2.1738455664998835      26.187116835204343
  3096   1       6.501854702864299      37.762961424732993      23.799543906069921
  3097   1      27.747447454942897      14.082079495112554      15.737861706139153
  3098   1      43.975975232054765      6.6412215335652283      28.539771807621701
  3099   1      32.651493298449488      1.4428881115788528      14.583531927696681
  3100   1       16.73138143805398      28.381576337792332      5.1517704539031453
  3101   1      29.758182426485195      0.1629845289935184      2.5021114143104546
  3102   1      31.329488151297372        35.9572314956594      31.815492694232802
  3103   1      8.6237360148647149      12.810336513618701      20.362414333826006
  3104   1      19.230342774038526      18.638602735341173      10.687093972135377
  3105   1      15.874493370857317      34.892781486711058      46.076149520020394
  3106   1      23.288625307249458      30.705420852108286      12.376472323811889
  3107   1      33.960083562631823      6.5667916405195115      19.521953787315105
  3108   1      15.094068824572773      28.407115496035907      21.665259062507726
  3109   1      4.2730732616315183      30.384169953710177      30.809496392192916
  3110   1     0.77875267106795509      15.454817154463504      11.224620349462857
  3111   1      27.012197527627219      3.6434189979294866      5.4454211511250081
  3112   1      44.167303976945909      10.582652507367989      34.228544731552887
  3113   1      39.790323095716467      8.2315252088987894      27.713077371528165
  3114   1      38.259213753167728       10.44084973422687      8.5957343954744161
  3115   1      22.433591819322388      38.871032337904936      27.062403968931587
  3116   1      38.542861106444136      46.007318626724114       0.681383799164616
  3117   1      40.089337912378213      25.404626086976716       31.03743245821736
  3118   1      44.570959831147533      44.276990599114797      2.7125241671024254
  3119   1      5.0087533980138526      16.179274639896924      40.883509092081951
  3120   1      33.218638912978193      11.040500798395229      19.668870817427827
  3121   1      14.270239287334512      27.384695677341426      14.217643252713811
  3122   1      42.989841971043575      34.676471578031027      4.3899142713978723
  3123   1      10.098509409264675      15.166648659855738      7.5142623227433605
  3124   1      8.5938091640409358      22.087019972266482      27.310384840308231
  3125   1      44.329208935851284      24.505465917296455       29.36432767625093
  3126   1       40.90804859677705      1.6054851256263696      24.097592928645774
  3127   1      20.974815973433497      17.805643731182936      8.5392302852993804
  3128   1      1.6265904913871041      41.194113820067585      26.767412483345659
  3129   1      26.487920538285717      35.648515752212873      39.313462678082693
  3130   1      14.405335844167929       29.02677958754159      3.4950403217089825
  3131   1      27.511694291843646      37.799133175401778      47.788622995583275
  3132   1       45.84093895348304      9.2751569171886334      35.699939048252546
  3133   1      12.727981644872852      25.683362252807662      12.185361945348987
  3134   1      9.4805890938765316      22.890764463808239      36.313334013501738
  3135   1      28.390324248986715      12.282930848782584      11.454021270042293
  3136   1      44.273489518296159      4.6214986541864116      46.846030492077382
  3137   1      29.837396534884185      36.997310053141263      1.7902624632697535
  3138   1      34.572408856012956      12.212761174751371      43.458311200265939
  3139   1      25.618793103827812      25.503558891856272      40.574857434580089
  3140   1      24.427490619607681      17.653283113060908      10.653778899088325
  3141   1      36.625804056144091      5.6050114003315201      3.4138932499060033
  3142   1      29.871547587036741      41.261219625621678        5.27613817802591
  3143   1      16.610413134747517      40.255268131176557      43.792149416314899
  3144   1      25.237969890224772       9.839215197974708      7.7893884517022443
  3145   1      26.831447434097289      27.614698856503793      5.6617506110595794
  3146   1      24.898498954164108      22.052105544519517      23.284307522812622
  3147   1      16.955021417926559      10.326808447754161      4.3928593470536637
  3148   1        17.3245850591554      25.479336601006196      7.8974046508732805
  3149   1      1.8658504704684238      42.415292821797863      46.223802693462751
  3150   1      37.112625597626845      39.103699035578387      2.4700404675635377
  3151   1      42.567806189570568      6.5514952257852004       34.13941588359431
  3152   1      29.098062466662142      9.7524425066723328      8.7971116161102341
  3153   1      46.855361731076499      44.644970370645893      29.162955350846048
  3154   1      5.8552664077068677      35.793730446170173      14.514770393124268
  3155   1      32.154131650278799       47.49044910439158       9.043953047803118
  3156   1      22.841427714798872      32.526058349518138      46.289562156176551
  3157   1      37.866263425057113      6.4643826583781365      40.004799737577194
  3158   1      20.005177196289772      21.418931866250727      9.5040922015858751
  3159   1       1.903952926587984      12.868343303783352      16.803049061439197
  3160   1      30.275428022938314      22.365614638072877      35.897544235810543
  3161   1       31.44473575700129       42.68231411113868      28.457733720148731
  3162   1      40.719300101859567      3.1583171072823166      17.425516861971644
  3163   1      41.479039074735454      3.7581643440926875      37.813834011980411
  3164   1      38.786976953413372     0.57467962444828791      36.790923909045716
  3165   1      40.677900610842734      38.882084034486255      4.5294881647774892
  3166   1      39.691886403263908      1.4439457190612832      4.8967998619965067
  3167   1      36.625527609170518      8.3211067980716784      14.174016382976083
  3168   1      22.503470683051027      10.963914392938234      17.865476727984465
  3169   1      8.6318172658150552      22.664624201616341      10.328637844458024
  3170   1      24.773222748242127      30.138915095551386      7.6771734005157928
  3171   1      12.000044163211482      28.436383455080545      6.4419408306908164
  3172   1      10.065100797617189      34.501297744706982      26.963691808226415
  3173   1      42.805165040894487      9.2673406160251641      20.777207326956869
  3174   1      25.650105534177047      20.222551847289701      20.338573742256454
  3175   1      35.841868271546517      19.683125708956645       30.51617708941313
  3176   1      24.697102390069666      3.9542525258084975       20.67562013834134
  3177   1      3.1966020752196957      24.073347417909467      28.825508909641506
  3178   1      45.459015525676108      44.901934532006521      22.029301557607912
  3179   1      10.779302427507908      6.3775099989074935      23.218568698349035
  3180   1      47.538109703769905      39.301645209894403      6.9098953724884407
  3181   1      46.495848074897239      43.988973737429319      47.237038260985315
  3182   1      31.514307201119919      42.154479211836765      44.021505372774961
  3183   1      7.5713999631057884      34.737248224350928      4.3848431559962311
  3184   1      5.3071267791650687      30.542186639666596      6.7439424465932403
  3185   1      29.517836537001102      17.125432994646836      6.3708814938426812
  3186   1      41.424671334466126      15.766546234648551      9.8455884937919649
  3187   1      28.079747111973575      28.797222558947411      32.510947400002102
  3188   1      41.949478946754027      1.6212000729618432      46.445142373352695
  3189   1      6.5986621258254043      20.693782148992113      9.0159484737135784
  3190   1      23.053939477632102      29.753227090530526      47.492226457461804
  3191   1      1.1022719222939998       43.16803207875693      23.893491238920873
  3192   1      15.924370727417985      38.821950178393507      30.306175325883856
  3193   1      25.682658153662807      36.595543862819284      25.922881714597196
  3194   1      3.6235176559816846      41.122907416698411      32.968207800312555
  3195   1      15.492026358742223       23.08418537702449      12.709045052168978
  3196   1      40.660199916577128     0.88066082036955362      8.5594443386056511
  3197   1      25.395283543181563      39.185376849315006      27.747382356447851
  3198   1      47.376644859090355      14.076102725232253      32.593902003007614
  3199   1      42.213157739818186      44.656203355890483      2.0208669000118031
  3200   1      33.123439305092219      4.0269001275400464      19.320489468845409
  3201   1      21.202760368214541      24.596397343365446      9.0247818588266586
  3202   1      44.155752055288701      47.727995132934382      28.681129526529318
  3203   1      36.101484974335975      8.1072851376473842      43.184387547056346
  3204   1       45.79229657071258      43.817543610838868      12.110660807187648
  3205   1      28.407161026066895      30.093690461995553      3.5789191316686755
  3206   1      45.550288135085239      12.422169615494939      9.7331503114919808
  3207   1      20.632636749833704      30.789805869753739      40.260729187988574
  3208   1      27.140449535096195      36.728123979741298      10.414531314518381
  3209   1      47.097501109713598      9.4092955350418084      3.4421405387085935
  3210   1      22.850765289425748      31.821008347780904       40.52172864349447
  3211   1      17.341013633735763      23.516837117845984      4.0647117648872158
  3212   1      39.006524719669784      4.6297156694086699      25.982125239507386
  3213   1       38.02187381457091      8.0641426367110469      21.307670176214227
  3214   1      35.916048950968161      6.5923927780204661       9.006794073125274
  3215   1      2.7242361821501859      3.6043104007239695      27.517178067950564
  3216   1      5.4963389517376271      15.093204112663893       22.38165752717018
  3217   1      35.682390088809555      32.200079444432674      4.2586971359624597
  3218   1      16.249522074526148      20.846176535647039       7.445308825396177
  3219   1      43.419881691570851       40.17926100555546      31.911934894307876
  3220   1      46.939057098832521      11.879623149211525      24.429685232849735
  3221   1        1.01158248996816      9.4435304638449171      25.254578743197698
  3222   1      12.240481491544422      17.964332797533892      4.5138853324389459
  3223   1      20.302138918188319      25.817530396214302      2.5379328205680531
  3224   1      23.082421379339763      30.023309759203869      22.498234449806038
  3225   1      35.963649128715744      10.588358875758644       23.32309296567044
  3226   1      32.719560028326882      44.129731931989355      2.3035257549071186
  3227   1      36.209993298713485      4.8934698748703278      22.398550477358967
  3228   1       13.62113759580169      20.032418704196338      11.400428912336746
  3229   1      9.1830344695854862      12.376065389726334      3.6438036227452368
  3230   1       38.11535618597626      2.1194134483476335      9.8302853421694945
  3231   1      38.970394722789052      4.6870337016852428      2.6865554712847439
  3232   1      17.637024419600017       32.98273011527256      32.568774650636719
  3233   1      40.825078072450872      47.180243685599166      2.8823191029108961
  3234   1       25.89668343540621      28.249456222598567      30.934431819066894
  3235   1        6.06807402352573      21.465095503194341      30.977478928079663
  3236   1      22.980433084134614      19.721352568212005      16.635264248904292
  3237   1      46.053373798037853       37.52736482061453       31.98791136240154
  3238   1       42.75940584988831       47.98495929429501      21.547475733291176
  3239   1      5.1840313927105495      42.977044390642732      30.101969637055483
  3240   1      25.911830525302953      18.906428146835118      6.6019749280830382
  3241   1      37.228866894743632      11.597386904685294      34.614745795015203
  3242   1      7.8282306338176131      14.375039102094199       0.298104760725456
  3243   1      28.912660502605924      6.6872478304484257      5.9686095074556285
  3244   1      41.559606462226284      27.772851986885314      6.1785709397967885
  3245   1      13.270554503859728       44.58710956691062      46.023119774453185
  3246   1      4.8993860760664178      18.426294814854696      33.011167095058738
  3247   1      4.5869330550135405      8.7354893557194586      1.5081545168896417
  3248   1      16.645268386295005      18.549868337102126      8.4032890504481035
  3249   1      30.342251134421375       44.31977634255086      10.134833348947861
  3250   1      4.6527740500681487      43.894828748482283      42.216399255912933
  3251   1      19.398942744125772      32.795308410034295      36.144245892423427
  3252   1      37.610178514269393      4.8866798307693022      18.848471446269251
  3253   1      15.793740005770204      37.701178533725731      43.473018227021477
  3254   1      28.793222017545773       23.99701752274094       6.054977111401719
  3255   1       24.20340515330723      25.328889662907837      1.2357716669632608
  3256   1      47.426288821069917      14.570676186083203      27.111224547113476
  3257   1      38.303953337515757      2.4254269180135775      46.330132044827714
  3258   1      24.009949668251569      34.913430555870676      27.921290257958553
  3259   1      7.6660502274420859      32.054295079438724      30.335697941316774
  3260   1      34.985934633100939      12.964892342541056      8.5214112075447748
  3261   1      34.103599915671168      42.183365907712897      1.8812977457161248
  3262   1      11.330428112087635      29.661806148352539       15.13533800365215
  3263   1      14.649324801266886      22.933315502724028      46.476271046095917
  3264   1      30.083809143612203      11.243646023493014      16.743192635246267
  3265   1      36.343170266479973      46.719556620309689      30.444914427517546
